Cr3 Sb3 Te2 O16
1.0
   3.0952130000000002    5.3189080000000004    0.0000000000000000
  -3.0952130000000002    5.3189080000000004    0.0000000000000000
   0.0000000000000000    0.0033300000000000    9.9644139999999997
Cr Sb Te O
3 3 2 16
direct
   0.8320639999999990    0.3367790000000000    0.2114879999999990 Cr
   0.3367790000000000    0.8320639999999990    0.2114879999999990 Cr
   0.1692300000000000    0.1692300000000000    0.7109110000000000 Cr
   0.8348869999999990    0.8348869999999990    0.2127639999999990 Sb
   0.1695670000000000    0.6689250000000000    0.7140139999999990 Sb
   0.6689250000000000    0.1695670000000000    0.7140139999999990 Sb
   0.6548280000000000    0.6548280000000000    0.4726209999999990 Te
   0.3213140000000000    0.3213140000000000    0.0009090000000000 Te
   0.8420440000000000    0.3093309999999990    0.6060670000000000 O
   0.5211330000000000    0.5211330000000000    0.3312770000000000 O
   0.6697670000000000    0.6697670000000000    0.1135210000000000 O
   0.0011600000000000    0.0011600000000000    0.3058070000000000 O
   0.0028130000000000    0.0028130000000000    0.8169310000000000 O
   0.3093309999999990    0.8420440000000000    0.6060670000000000 O
   0.9560710000000000    0.5223360000000000    0.3339240000000000 O
   0.5223360000000000    0.9560710000000000    0.3339240000000000 O
   0.1631380000000000    0.1631380000000000    0.1049770000000000 O
   0.8434710000000000    0.8434710000000000    0.6114069999999990 O
   0.4822619999999990    0.0426550000000000    0.8269409999999990 O
   0.0426550000000000    0.4822619999999990    0.8269409999999990 O
   0.3359590000000000    0.3359590000000000    0.6071360000000000 O
   0.6735840000000000    0.1583520000000000    0.1090010000000000 O
   0.4886300000000001    0.4886300000000001    0.8246340000000000 O
   0.1583520000000000    0.6735840000000000    0.1090010000000000 O
