Mg1 Cu3 As1 S4
1.0
   5.5474649999999999   -0.1041900000000000    0.1041900000000000
  -0.1041900000000000    5.5474649999999999    0.1041900000000000
   0.1041900000000000    0.1041900000000000    5.5474649999999999
Mg Cu As S
1 3 1 4
direct
   0.2698129999999990    0.2698129999999990    0.7301869999999990 Mg
   0.9890329999999991    0.5183880000000000    0.4816120000000000 Cu
   0.5183880000000000    0.5183880000000000    0.0109670000000000 Cu
   0.5183880000000000    0.9890329999999991    0.4816120000000000 Cu
   0.9755300000000001    0.9755300000000001    0.0244700000000000 As
   0.2586290000000000    0.7307480000000000    0.7413710000000000 S
   0.7308420000000000    0.7308420000000000    0.2691580000000000 S
   0.7307480000000000    0.2586290000000000    0.7413710000000000 S
   0.2586290000000000    0.2586290000000000    0.2692520000000000 S
