Cs12 Sb4 Se12
1.0
  10.7377960199999993   -0.0000000000000000    0.0000000000000000
  -0.0000000000000000   10.7377960199999993   -0.0000000000000000
   0.0000000000000000    0.0000000000000000   10.7377960199999993
Cs Sb Se
12 4 12
direct
   0.1851929700000000    0.6851929700000000    0.8148070300000000 Cs
   0.6851929700000000    0.8148070300000000    0.1851929700000000 Cs
   0.8148070300000000    0.1851929700000000    0.6851929700000000 Cs
   0.3148070300000000    0.3148070300000000    0.3148070300000000 Cs
   0.9253524100000000    0.4253524100000000    0.0746475900000000 Cs
   0.4253524100000000    0.0746475900000000    0.9253524100000000 Cs
   0.0746475900000000    0.9253524100000000    0.4253524100000000 Cs
   0.5746475900000000    0.5746475900000000    0.5746475900000000 Cs
   0.6889131200000000    0.1889131200000000    0.3110868800000000 Cs
   0.1889131200000000    0.3110868800000000    0.6889131200000000 Cs
   0.3110868800000000    0.6889131200000000    0.1889131200000000 Cs
   0.8110868800000001    0.8110868800000001    0.8110868800000001 Cs
   0.4743497700000000    0.9743497700000000    0.5256502300000000 Sb
   0.9743497700000000    0.5256502300000000    0.4743497700000000 Sb
   0.5256502300000000    0.4743497700000000    0.9743497700000000 Sb
   0.0256502300000000    0.0256502300000000    0.0256502300000000 Sb
   0.0066502500000000    0.7969376200000000    0.0958205999999990 Se
   0.9041794000000000    0.5066502500000000    0.7030623800000000 Se
   0.2969376200000000    0.4041793999999990    0.9933497500000000 Se
   0.5066502500000000    0.7030623800000000    0.9041794000000000 Se
   0.4041793999999990    0.9933497500000000    0.2969376200000000 Se
   0.7969376200000000    0.0958205999999990    0.0066502500000000 Se
   0.9933497500000000    0.2969376200000000    0.4041793999999990 Se
   0.0958205999999990    0.0066502500000000    0.7969376200000000 Se
   0.7030623800000000    0.9041794000000000    0.5066502500000000 Se
   0.4933497500000000    0.2030623800000000    0.5958205999999990 Se
   0.5958205999999990    0.4933497500000000    0.2030623800000000 Se
   0.2030623800000000    0.5958205999999990    0.4933497500000000 Se
