Li4 Bi8 S12 O48
1.0
   9.8598079999999992    0.0000000000000000    0.0000000000000000
   0.0000000000000000    8.9416039999999999    0.0000000000000000
   0.0000000000000000    8.8356929999999991   12.7487899999999996
Li Bi S O
4 8 12 48
direct
   0.7734510000000000    0.9911629999999991    0.3212009999999990 Li
   0.2734510000000000    0.0088370000000000    0.1787989999999990 Li
   0.7265490000000000    0.9911629999999991    0.8212010000000000 Li
   0.2265490000000000    0.0088370000000000    0.6787989999999990 Li
   0.5363629999999990    0.3745549999999990    0.8834959999999999 Bi
   0.9495000000000000    0.1884800000000000    0.0975289999999990 Bi
   0.0363630000000000    0.6254449999999990    0.6165039999999991 Bi
   0.4495000000000000    0.8115200000000000    0.4024709999999990 Bi
   0.5505000000000000    0.1884800000000000    0.5975290000000000 Bi
   0.9636370000000000    0.3745549999999990    0.3834960000000000 Bi
   0.0505000000000000    0.8115200000000000    0.9024709999999990 Bi
   0.4636369999999990    0.6254449999999990    0.1165040000000000 Bi
   0.2769109999999990    0.4376150000000000    0.0054170000000000 S
   0.3778419999999990    0.7595179999999990    0.6503369999999991 S
   0.0973860000000000    0.0446560000000000    0.3431980000000000 S
   0.5973860000000000    0.9553440000000000    0.1568020000000000 S
   0.8778420000000000    0.2404820000000000    0.8496629999999999 S
   0.7769110000000000    0.5623850000000000    0.4945830000000000 S
   0.2230889999999990    0.4376150000000000    0.5054170000000000 S
   0.1221579999999990    0.7595179999999990    0.1503370000000000 S
   0.4026139999999990    0.0446560000000000    0.8431980000000000 S
   0.9026139999999990    0.9553440000000000    0.6568020000000000 S
   0.6221580000000000    0.2404820000000000    0.3496630000000000 S
   0.7230890000000000    0.5623850000000000    0.9945830000000000 S
   0.8589129999999990    0.4790560000000000    0.0422960000000000 O
   0.8889389999999990    0.8285929999999990    0.6239030000000000 O
   0.5911850000000000    0.1045420000000000    0.3250349999999990 O
   0.6985779999999990    0.5357149999999991    0.9086390000000000 O
   0.3847580000000000    0.5328470000000000    0.9226110000000000 O
   0.2344270000000000    0.6993509999999999    0.6836479999999990 O
   0.3903220000000000    0.8492959999999991    0.5352120000000000 O
   0.9674619999999990    0.0892890000000000    0.2798480000000000 O
   0.2765710000000000    0.2443340000000000    0.0462570000000000 O
   0.2138250000000000    0.0651190000000000    0.2783250000000000 O
   0.0874320000000000    0.8542750000000000    0.4379750000000000 O
   0.4736700000000000    0.6027870000000000    0.7060850000000000 O
   0.9736700000000000    0.3972130000000000    0.7939149999999990 O
   0.5874320000000000    0.1457250000000000    0.0620250000000000 O
   0.7138249999999990    0.9348810000000000    0.2216749999999990 O
   0.7765710000000000    0.7556659999999999    0.4537429999999990 O
   0.8903219999999999    0.1507040000000000    0.9647880000000000 O
   0.4674620000000000    0.9107109999999990    0.2201520000000000 O
   0.7344269999999991    0.3006490000000000    0.8163520000000000 O
   0.8847579999999990    0.4671530000000000    0.5773889999999990 O
   0.1985780000000000    0.4642850000000000    0.5913610000000000 O
   0.3889390000000000    0.1714070000000000    0.8760970000000000 O
   0.0911850000000000    0.8954580000000000    0.1749649999999990 O
   0.3589130000000000    0.5209440000000000    0.4577040000000000 O
   0.6410870000000000    0.4790560000000000    0.5422960000000000 O
   0.9088149999999990    0.1045420000000000    0.8250350000000000 O
   0.6110610000000000    0.8285929999999990    0.1239030000000000 O
   0.8014220000000000    0.5357149999999991    0.4086390000000000 O
   0.1152420000000000    0.5328470000000000    0.4226109999999990 O
   0.2655730000000000    0.6993509999999999    0.1836479999999990 O
   0.5325380000000000    0.0892890000000000    0.7798480000000000 O
   0.1096780000000000    0.8492959999999991    0.0352120000000000 O
   0.2234290000000000    0.2443340000000000    0.5462570000000000 O
   0.2861750000000000    0.0651190000000000    0.7783249999999990 O
   0.4125680000000000    0.8542750000000000    0.9379750000000000 O
   0.0263300000000000    0.6027870000000000    0.2060850000000000 O
   0.5263300000000001    0.3972130000000000    0.2939150000000000 O
   0.9125679999999990    0.1457250000000000    0.5620250000000000 O
   0.7861750000000000    0.9348810000000000    0.7216750000000000 O
   0.7234290000000000    0.7556659999999999    0.9537430000000000 O
   0.0325380000000000    0.9107109999999990    0.7201520000000000 O
   0.6096779999999991    0.1507040000000000    0.4647880000000000 O
   0.7655729999999999    0.3006490000000000    0.3163519999999990 O
   0.6152420000000000    0.4671530000000000    0.0773890000000000 O
   0.3014219999999990    0.4642850000000000    0.0913610000000000 O
   0.4088150000000000    0.8954580000000000    0.6749649999999990 O
   0.1110609999999990    0.1714070000000000    0.3760969999999990 O
   0.1410870000000000    0.5209440000000000    0.9577040000000000 O
