Te6 As4 O22
1.0
   6.4202506499999998    0.0073637999999990   -1.4038515899999999
   0.4173279000000000    4.9930065399999997   -5.8838797500000002
   0.8488730200000000    9.9258181499999996    3.2851636499999999
Te As O
6 4 22
direct
   0.6852074500000001    0.7729798000000000    0.4808143000000000 Te
   0.3147925500000000    0.2270201999999990    0.5191857000000000 Te
   0.7920589800000000    0.3365105500000000    0.2033890700000000 Te
   0.2079410200000000    0.6634894500000000    0.7966109300000001 Te
   0.7682555500000000    0.9506884700000000    0.1569206000000000 Te
   0.2317444500000000    0.0493115300000000    0.8430793999999990 Te
   0.3137700900000000    0.2921332600000000    0.1119624100000000 As
   0.6862299100000000    0.7078667400000000    0.8880375900000000 As
   0.1897708200000000    0.7192935900000000    0.3941088000000000 As
   0.8102291800000000    0.2807064100000000    0.6058912000000000 As
   0.2002170200000000    0.4093541700000000    0.9462279800000000 O
   0.7997829800000000    0.5906458300000000    0.0537720200000000 O
   0.7421593600000000    0.0364004100000000    0.3101717200000000 O
   0.2578406400000000    0.9635995900000001    0.6898282800000000 O
   0.4732857800000000    0.4132508100000000    0.1518997000000000 O
   0.5267142200000000    0.5867491900000000    0.8481002999999990 O
   0.7028777900000001    0.7184792600000001    0.3187259900000000 O
   0.2971222100000000    0.2815207400000000    0.6812740100000000 O
   0.0861565500000000    0.8422633400000000    0.2293781800000000 O
   0.9138434500000000    0.1577366600000000    0.7706218200000000 O
   0.0048450200000000    0.6909476999999991    0.5120785100000000 O
   0.9951549800000000    0.3090523000000000    0.4879214900000000 O
   0.8271389900000000    0.2207519600000000    0.0721457900000000 O
   0.1728610100000000    0.7792480400000000    0.9278542100000000 O
   0.4444794200000000    0.0742290900000000    0.1168296400000000 O
   0.5555205800000000    0.9257709100000000    0.8831703600000000 O
   0.3508320000000000    0.8292827900000000    0.4441594100000000 O
   0.6491680000000000    0.1707172100000000    0.5558405900000000 O
   0.1262743200000000    0.2756148300000000    0.2253036400000000 O
   0.8737256800000001    0.7243851700000000    0.7746963600000000 O
   0.3252513100000000    0.4982273900000000    0.4050306200000000 O
   0.6747486900000000    0.5017726100000001    0.5949693800000000 O
