K8 Ag24 As16 S40
1.0
   6.4417869999999997    0.0000000000000000    0.0000000000000000
   0.0000000000000000   17.0420639999999999    0.0000000000000000
   0.0000000000000000    0.0000000000000000   19.7204680000000003
K Ag As S
8 24 16 40
direct
   0.9097310000000000    0.6239749999999999    0.4788889999999990 K
   0.4097309999999990    0.1239749999999990    0.0211109999999990 K
   0.0902690000000000    0.3760250000000000    0.5211110000000000 K
   0.0902690000000000    0.1239749999999990    0.5211110000000000 K
   0.5902689999999990    0.6239749999999999    0.9788890000000000 K
   0.4097309999999990    0.3760250000000000    0.0211109999999990 K
   0.5902689999999990    0.8760249999999991    0.9788890000000000 K
   0.9097310000000000    0.8760249999999991    0.4788889999999990 K
   0.0962910000000000    0.1260040000000000    0.3146500000000000 Ag
   0.9093169999999990    0.9761510000000000    0.2653780000000000 Ag
   0.0906830000000000    0.4761510000000000    0.7346220000000000 Ag
   0.9093169999999990    0.5238490000000000    0.2653780000000000 Ag
   0.4093170000000000    0.0238490000000000    0.2346220000000000 Ag
   0.9037090000000000    0.6260040000000000    0.6853500000000000 Ag
   0.5906830000000000    0.9761510000000000    0.7653780000000000 Ag
   0.0962910000000000    0.3739960000000000    0.3146500000000000 Ag
   0.8397850000000000    0.3681589999999990    0.1406349999999990 Ag
   0.9037090000000000    0.8739960000000000    0.6853500000000000 Ag
   0.0906830000000000    0.0238490000000000    0.7346220000000000 Ag
   0.1602150000000000    0.8681590000000000    0.8593649999999990 Ag
   0.5906830000000000    0.5238490000000000    0.7653780000000000 Ag
   0.5962910000000000    0.6260040000000000    0.1853500000000000 Ag
   0.5962910000000000    0.8739960000000000    0.1853500000000000 Ag
   0.1602150000000000    0.6318410000000000    0.8593649999999990 Ag
   0.3397850000000000    0.6318410000000000    0.3593650000000000 Ag
   0.4037090000000000    0.1260040000000000    0.8146500000000001 Ag
   0.3397850000000000    0.8681590000000000    0.3593650000000000 Ag
   0.6602150000000000    0.1318409999999990    0.6406350000000000 Ag
   0.8397850000000000    0.1318409999999990    0.1406349999999990 Ag
   0.4037090000000000    0.3739960000000000    0.8146500000000001 Ag
   0.4093170000000000    0.4761510000000000    0.2346220000000000 Ag
   0.6602150000000000    0.3681589999999990    0.6406350000000000 Ag
   0.5956540000000000    0.7500000000000000    0.7873410000000000 As
   0.4069310000000000    0.5391469999999990    0.5890050000000000 As
   0.9043460000000000    0.7500000000000000    0.2873410000000000 As
   0.5930690000000000    0.4608529999999990    0.4109950000000000 As
   0.5930690000000000    0.0391470000000000    0.4109950000000000 As
   0.4909750000000000    0.7500000000000000    0.6090329999999990 As
   0.4069310000000000    0.9608530000000000    0.5890050000000000 As
   0.9069309999999990    0.4608529999999990    0.9109950000000000 As
   0.9909749999999991    0.2500000000000000    0.8909670000000000 As
   0.9069309999999990    0.0391470000000000    0.9109950000000000 As
   0.0956539999999990    0.2500000000000000    0.7126589999999990 As
   0.0930690000000000    0.9608530000000000    0.0890050000000000 As
   0.5090249999999999    0.2500000000000000    0.3909670000000000 As
   0.4043460000000000    0.2500000000000000    0.2126590000000000 As
   0.0930690000000000    0.5391469999999990    0.0890050000000000 As
   0.0090250000000000    0.7500000000000000    0.1090329999999990 As
   0.7463480000000000    0.9916339999999991    0.6062320000000000 S
   0.1884400000000000    0.9098269999999991    0.1912970000000000 S
   0.3115600000000000    0.9098269999999991    0.6912969999999991 S
   0.3807680000000000    0.7500000000000000    0.8793860000000000 S
   0.7463480000000000    0.5083660000000000    0.6062320000000000 S
   0.6585190000000000    0.7500000000000000    0.1111170000000000 S
   0.6192320000000000    0.2500000000000000    0.1206140000000000 S
   0.8115600000000001    0.0901729999999990    0.8087029999999999 S
   0.0758119999999990    0.8455410000000000    0.0259620000000000 S
   0.8115600000000001    0.4098270000000000    0.8087029999999999 S
   0.9241880000000000    0.3455410000000000    0.9740380000000000 S
   0.4241879999999990    0.8455410000000000    0.5259619999999990 S
   0.6884400000000001    0.0901729999999990    0.3087030000000000 S
   0.1192319999999990    0.7500000000000000    0.3793860000000000 S
   0.7951220000000000    0.6432559999999991    0.8139590000000000 S
   0.3115600000000000    0.5901729999999999    0.6912969999999991 S
   0.2048780000000000    0.1432560000000000    0.1860409999999990 S
   0.8807680000000000    0.2500000000000000    0.6206140000000000 S
   0.2536520000000000    0.0083660000000000    0.3937680000000000 S
   0.7048780000000000    0.6432559999999991    0.3139590000000000 S
   0.3414810000000000    0.2500000000000000    0.8888830000000000 S
   0.5758120000000000    0.1544589999999990    0.4740379999999990 S
   0.8414809999999990    0.7500000000000000    0.6111170000000000 S
   0.6884400000000001    0.4098270000000000    0.3087030000000000 S
   0.0758119999999990    0.6544590000000000    0.0259620000000000 S
   0.2536520000000000    0.4916339999999990    0.3937680000000000 S
   0.2463479999999990    0.0083660000000000    0.8937680000000000 S
   0.2463479999999990    0.4916339999999990    0.8937680000000000 S
   0.1884400000000000    0.5901729999999999    0.1912970000000000 S
   0.1585190000000000    0.2500000000000000    0.3888830000000000 S
   0.2951220000000000    0.3567440000000000    0.6860410000000000 S
   0.5758120000000000    0.3455410000000000    0.4740379999999990 S
   0.7048780000000000    0.8567440000000000    0.3139590000000000 S
   0.7536520000000000    0.5083660000000000    0.1062320000000000 S
   0.2951220000000000    0.1432560000000000    0.6860410000000000 S
   0.4241879999999990    0.6544590000000000    0.5259619999999990 S
   0.9241880000000000    0.1544589999999990    0.9740380000000000 S
   0.7951220000000000    0.8567440000000000    0.8139590000000000 S
   0.2048780000000000    0.3567440000000000    0.1860409999999990 S
   0.7536520000000000    0.9916339999999991    0.1062320000000000 S
