Li12 Bi4 S12
1.0
   6.8445090000000004    0.0000000000000000    0.0000000000000000
   0.0000000000000000    7.8202199999999999    0.0000000000000000
   0.0000000000000000    0.0000000000000000   10.4358249999999995
Li Bi S
12 4 12
direct
   0.0399960000000000    0.0674589999999990    0.7711460000000000 Li
   0.3424500000000000    0.0941530000000000    0.3162089999999990 Li
   0.3766470000000000    0.2477929999999990    0.6196459999999990 Li
   0.8766470000000000    0.2522070000000000    0.1196459999999990 Li
   0.8424500000000000    0.4058469999999990    0.8162090000000000 Li
   0.5399959999999990    0.4325409999999990    0.2711460000000000 Li
   0.4600039999999990    0.5674589999999990    0.7711460000000000 Li
   0.1575500000000000    0.5941529999999990    0.3162089999999990 Li
   0.1233529999999990    0.7477929999999990    0.6196459999999990 Li
   0.6233529999999990    0.7522070000000000    0.1196459999999990 Li
   0.6575500000000001    0.9058470000000000    0.8162090000000000 Li
   0.9600040000000000    0.9325410000000000    0.2711460000000000 Li
   0.9007759999999990    0.2830530000000000    0.4965679999999991 Bi
   0.4007759999999990    0.2169470000000000    0.9965680000000000 Bi
   0.5992240000000000    0.7830530000000000    0.4965679999999991 Bi
   0.0992239999999990    0.7169470000000000    0.9965680000000000 Bi
   0.1553520000000000    0.0375070000000000    0.5094870000000000 S
   0.6957169999999990    0.1487860000000000    0.3159300000000000 S
   0.7042410000000000    0.1732330000000000    0.6918380000000000 S
   0.2042409999999990    0.3267670000000000    0.1918379999999990 S
   0.1957170000000000    0.3512139999999990    0.8159300000000000 S
   0.6553519999999990    0.4624930000000000    0.0094869999999990 S
   0.3446480000000000    0.5375070000000000    0.5094870000000000 S
   0.8042830000000000    0.6487860000000000    0.3159300000000000 S
   0.7957590000000000    0.6732330000000000    0.6918380000000000 S
   0.2957590000000000    0.8267669999999990    0.1918379999999990 S
   0.3042829999999990    0.8512139999999990    0.8159300000000000 S
   0.8446480000000000    0.9624929999999990    0.0094869999999990 S
