Rb12 Sb4 Se16
1.0
   9.9677083999999994    0.0000000000000000    0.0000000000000000
   0.0000000000000000   10.3530539899999994    0.0000000000000000
   0.0000000000000000    0.0000000000000000   11.5717511000000002
Rb Sb Se
12 4 16
direct
   0.9343942000000000    0.3018071700000000    0.9554727900000001 Rb
   0.4343941999999990    0.1981928300000000    0.9554727900000001 Rb
   0.5656057999999990    0.8018071700000000    0.4554727900000000 Rb
   0.0656057999999990    0.6981928300000000    0.0445272100000000 Rb
   0.1379964900000000    0.9189242600000000    0.7500000000000000 Rb
   0.6379964900000000    0.5810757400000001    0.7500000000000000 Rb
   0.3620035100000000    0.4189242600000000    0.2500000000000000 Rb
   0.8620035100000000    0.0810757400000000    0.2500000000000000 Rb
   0.0656057999999990    0.6981928300000000    0.4554727900000000 Rb
   0.4343941999999990    0.1981928300000000    0.5445272100000000 Rb
   0.5656057999999990    0.8018071700000000    0.0445272100000000 Rb
   0.9343942000000000    0.3018071700000000    0.5445272100000000 Rb
   0.7783107500000001    0.5203825600000000    0.2500000000000000 Sb
   0.2783107500000000    0.9796174400000001    0.2500000000000000 Sb
   0.7216892500000001    0.0203825600000000    0.7500000000000000 Sb
   0.2216892500000000    0.4796174400000000    0.7500000000000000 Sb
   0.6502254200000001    0.4670208800000000    0.0719949000000000 Se
   0.1502254200000000    0.0329791200000000    0.4280050999999990 Se
   0.8497745800000001    0.9670208800000000    0.9280050999999990 Se
   0.3497745800000000    0.5329791200000000    0.5719949000000000 Se
   0.3497745800000000    0.5329791200000000    0.9280050999999990 Se
   0.8497745800000001    0.9670208800000000    0.5719949000000000 Se
   0.1502254200000000    0.0329791200000000    0.0719949000000000 Se
   0.6502254200000001    0.4670208800000000    0.4280050999999990 Se
   0.0013155900000000    0.5951650800000000    0.7500000000000000 Se
   0.5013155900000000    0.9048349200000000    0.7500000000000000 Se
   0.4986844100000000    0.0951650800000000    0.2500000000000000 Se
   0.9986844100000000    0.4048349200000000    0.2500000000000000 Se
   0.1783263700000000    0.2430939100000000    0.7500000000000000 Se
   0.8216736300000000    0.7569060900000000    0.2500000000000000 Se
   0.3216736300000000    0.7430939100000000    0.2500000000000000 Se
   0.6783263700000001    0.2569060900000000    0.7500000000000000 Se
