Li2 Bi4 S6 O24
1.0
   7.5303730000000000   -4.7303530000000000    0.0000000000000000
   7.5303730000000000    4.7303530000000000    0.0000000000000000
   4.5589089999999999    0.0000000000000000    7.6353850000000003
Li Bi S O
2 4 6 24
direct
   0.0000000000000000    0.0000000000000000    0.0000000000000000 Li
   0.5000000000000000    0.5000000000000000    0.5000000000000000 Li
   0.3333029999999990    0.3333029999999990    0.3333029999999990 Bi
   0.1666969999999990    0.1666969999999990    0.1666969999999990 Bi
   0.6666970000000000    0.6666970000000000    0.6666970000000000 Bi
   0.8333030000000000    0.8333030000000000    0.8333030000000000 Bi
   0.7500000000000000    0.0842909999999990    0.4157090000000000 S
   0.9157090000000000    0.5842910000000000    0.2500000000000000 S
   0.5842910000000000    0.2500000000000000    0.9157090000000000 S
   0.4157090000000000    0.7500000000000000    0.0842909999999990 S
   0.0842909999999990    0.4157090000000000    0.7500000000000000 S
   0.2500000000000000    0.9157090000000000    0.5842910000000000 S
   0.8953650000000000    0.0949879999999990    0.2464889999999990 O
   0.7535109999999990    0.1046349999999990    0.9050119999999990 O
   0.9402959999999990    0.4485250000000000    0.6852980000000000 O
   0.0514750000000000    0.5597040000000000    0.8147019999999990 O
   0.6046349999999990    0.2535110000000000    0.4050120000000000 O
   0.7464890000000000    0.5949880000000000    0.3953649999999990 O
   0.9050119999999990    0.7535109999999990    0.1046349999999990 O
   0.1852980000000000    0.9485250000000000    0.4402959999999990 O
   0.5514749999999990    0.3147020000000000    0.0597040000000000 O
   0.3147020000000000    0.0597040000000000    0.5514749999999990 O
   0.4402959999999990    0.1852980000000000    0.9485250000000000 O
   0.5949880000000000    0.3953649999999990    0.7464890000000000 O
   0.4050120000000000    0.6046349999999990    0.2535110000000000 O
   0.6852980000000000    0.9402959999999990    0.4485250000000000 O
   0.5597040000000000    0.8147019999999990    0.0514750000000000 O
   0.8147019999999990    0.0514750000000000    0.5597040000000000 O
   0.4485250000000000    0.6852980000000000    0.9402959999999990 O
   0.0949879999999990    0.2464889999999990    0.8953650000000000 O
   0.2535110000000000    0.4050120000000000    0.6046349999999990 O
   0.3953649999999990    0.7464890000000000    0.5949880000000000 O
   0.0597040000000000    0.5514749999999990    0.3147020000000000 O
   0.9485250000000000    0.4402959999999990    0.1852980000000000 O
   0.2464889999999990    0.8953650000000000    0.0949879999999990 O
   0.1046349999999990    0.9050119999999990    0.7535109999999990 O
