Bi8 S12 O48
1.0
   9.3454320000000006    0.0000000000000000    0.0000000000000000
   0.0000000000000000    9.3612780000000004    0.0000000000000000
   0.0000000000000000    9.3290190000000006   12.9459900000000001
Bi S O
8 12 48
direct
   0.4638660000000000    0.3684830000000000    0.3825840000000000 Bi
   0.9638660000000000    0.6315170000000000    0.1174159999999990 Bi
   0.5384409999999999    0.8650709999999990    0.8851819999999990 Bi
   0.0384409999999990    0.1349290000000000    0.6148180000000000 Bi
   0.9615589999999991    0.8650709999999990    0.3851819999999990 Bi
   0.4615590000000000    0.1349290000000000    0.1148179999999990 Bi
   0.0361340000000000    0.3684830000000000    0.8825839999999990 Bi
   0.5361340000000000    0.6315170000000000    0.6174160000000000 Bi
   0.7543719999999990    0.4553140000000000    0.5063480000000000 S
   0.6171080000000000    0.7456130000000000    0.1543189999999990 S
   0.8932819999999990    0.0526989999999990    0.8461740000000000 S
   0.1171079999999990    0.2543870000000000    0.3456809999999990 S
   0.3932819999999990    0.9473009999999999    0.6538260000000000 S
   0.2543720000000000    0.5446860000000000    0.9936520000000000 S
   0.7456280000000000    0.4553140000000000    0.0063479999999990 S
   0.6067180000000000    0.0526989999999990    0.3461740000000000 S
   0.8828920000000000    0.7456130000000000    0.6543190000000000 S
   0.1067180000000000    0.9473009999999999    0.1538260000000000 S
   0.3828920000000000    0.2543870000000000    0.8456810000000000 S
   0.2456279999999990    0.5446860000000000    0.4936520000000000 S
   0.1334500000000000    0.4105209999999990    0.5572319999999999 O
   0.1207950000000000    0.7932370000000000    0.1493300000000000 O
   0.2982370000000000    0.5269700000000000    0.4120919999999990 O
   0.4040430000000000    0.1205059999999990    0.8245749999999999 O
   0.6350300000000001    0.4807150000000000    0.4373620000000000 O
   0.7633230000000000    0.6701420000000000    0.1908079999999990 O
   0.6020639999999990    0.8282569999999990    0.0421830000000000 O
   0.0107850000000000    0.0882869999999990    0.7724240000000000 O
   0.7558330000000000    0.0276639999999990    0.8093720000000000 O
   0.8153309999999990    0.2752100000000000    0.5568750000000000 O
   0.9317930000000000    0.8927240000000000    0.9492400000000001 O
   0.5073489999999991    0.6035300000000000    0.2115030000000000 O
   0.0073490000000000    0.3964700000000000    0.2884970000000000 O
   0.4317930000000000    0.1072760000000000    0.5507600000000000 O
   0.3153310000000000    0.7247900000000000    0.9431250000000000 O
   0.2558330000000000    0.9723360000000000    0.6906280000000000 O
   0.1020640000000000    0.1717429999999990    0.4578170000000000 O
   0.5107849999999990    0.9117130000000000    0.7275760000000000 O
   0.2633230000000000    0.3298580000000000    0.3091919999999990 O
   0.1350300000000000    0.5192850000000000    0.0626380000000000 O
   0.7982370000000000    0.4730300000000001    0.0879080000000000 O
   0.6207950000000000    0.2067630000000000    0.3506700000000000 O
   0.9040429999999990    0.8794940000000000    0.6754249999999991 O
   0.6334500000000001    0.5894790000000000    0.9427679999999991 O
   0.3665500000000000    0.4105209999999990    0.0572320000000000 O
   0.0959570000000000    0.1205059999999990    0.3245750000000000 O
   0.3792049999999990    0.7932370000000000    0.6493300000000001 O
   0.2017630000000000    0.5269700000000000    0.9120920000000000 O
   0.8649700000000000    0.4807150000000000    0.9373619999999990 O
   0.7366769999999990    0.6701420000000000    0.6908080000000000 O
   0.4892149999999990    0.0882869999999990    0.2724240000000000 O
   0.8979360000000000    0.8282569999999990    0.5421830000000000 O
   0.7441669999999990    0.0276639999999990    0.3093720000000000 O
   0.6846690000000000    0.2752100000000000    0.0568749999999990 O
   0.5682070000000000    0.8927240000000000    0.4492400000000000 O
   0.9926510000000000    0.6035300000000000    0.7115030000000000 O
   0.4926509999999991    0.3964700000000000    0.7884970000000000 O
   0.0682070000000000    0.1072760000000000    0.0507600000000000 O
   0.1846690000000000    0.7247900000000000    0.4431250000000000 O
   0.2441670000000000    0.9723360000000000    0.1906280000000000 O
   0.9892150000000000    0.9117130000000000    0.2275760000000000 O
   0.3979359999999990    0.1717429999999990    0.9578169999999990 O
   0.2366770000000000    0.3298580000000000    0.8091919999999990 O
   0.3649700000000000    0.5192850000000000    0.5626380000000000 O
   0.5959570000000000    0.8794940000000000    0.1754250000000000 O
   0.7017629999999990    0.4730300000000001    0.5879080000000000 O
   0.8792050000000000    0.2067630000000000    0.8506700000000000 O
   0.8665500000000000    0.5894790000000000    0.4427680000000000 O
