As4 Se4 S12 N20 F24
1.0
   6.8519909999999999    0.0000000000000000    0.0000000000000000
   0.0000000000000000   12.1699570000000001    0.0000000000000000
   0.0000000000000000    1.2271110000000001   13.0892180000000007
As Se S N F
4 4 12 20 24
direct
   0.0743170000000000    0.9962519999999990    0.3981490000000000 As
   0.1488789999999990    0.4945949999999991    0.9045909999999990 As
   0.8511210000000000    0.4945949999999991    0.4045910000000000 As
   0.9256829999999990    0.9962519999999990    0.8981490000000000 As
   0.6603340000000000    0.8660690000000000    0.2248760000000000 Se
   0.6574900000000000    0.1261350000000000    0.5798679999999991 Se
   0.3425100000000000    0.1261350000000000    0.0798680000000000 Se
   0.3396659999999990    0.8660690000000000    0.7248760000000000 Se
   0.1840139999999990    0.6873030000000000    0.6032680000000000 S
   0.3391309999999990    0.2900169999999990    0.5198950000000000 S
   0.6608689999999990    0.2900169999999990    0.0198950000000000 S
   0.6575130000000000    0.7020700000000001    0.7879330000000000 S
   0.1848320000000000    0.3037450000000000    0.2030840000000000 S
   0.4221200000000001    0.7613470000000000    0.0772340000000000 S
   0.3424870000000000    0.7020700000000001    0.2879330000000000 S
   0.4228139999999990    0.2287550000000000    0.7301150000000000 S
   0.5771860000000000    0.2287550000000000    0.2301150000000000 S
   0.8151680000000000    0.3037450000000000    0.7030839999999990 S
   0.8159860000000000    0.6873030000000000    0.1032680000000000 S
   0.5778800000000001    0.7613470000000000    0.5772340000000000 S
   0.4890290000000000    0.7777700000000001    0.8198230000000000 N
   0.4973619999999990    0.2120510000000000    0.9859660000000000 N
   0.6098900000000000    0.3162830000000000    0.7523150000000000 N
   0.5035970000000000    0.8757250000000000    0.6132379999999999 N
   0.1483779999999990    0.7676830000000000    0.6868719999999990 N
   0.6849970000000000    0.3117100000000000    0.1345750000000000 N
   0.4964030000000000    0.8757250000000000    0.1132379999999990 N
   0.5039450000000000    0.1149770000000000    0.1925029999999990 N
   0.6885270000000000    0.6807100000000000    0.6735730000000000 N
   0.3901100000000000    0.3162830000000000    0.2523150000000000 N
   0.5109710000000000    0.7777700000000001    0.3198229999999990 N
   0.1535240000000000    0.2267680000000000    0.1162629999999990 N
   0.6083609999999990    0.6726170000000000    0.0573580000000000 N
   0.3916389999999990    0.6726170000000000    0.5573580000000000 N
   0.3114730000000000    0.6807100000000000    0.1735730000000000 N
   0.5026380000000000    0.2120510000000000    0.4859659999999991 N
   0.3150030000000000    0.3117100000000000    0.6345750000000000 N
   0.4960549999999990    0.1149770000000000    0.6925030000000000 N
   0.8464760000000000    0.2267680000000000    0.6162630000000000 N
   0.8516220000000000    0.7676830000000000    0.1868719999999990 N
   0.9377050000000000    0.8499559999999990    0.9176970000000000 F
   0.0658769999999990    0.9883820000000000    0.2634880000000000 F
   0.6481500000000000    0.4701349999999990    0.4880449999999991 F
   0.9194629999999990    0.1426420000000000    0.8780690000000000 F
   0.8500740000000000    0.6361049999999990    0.4267039999999990 F
   0.3518500000000001    0.4701349999999990    0.9880450000000000 F
   0.0622949999999990    0.8499559999999990    0.4176970000000000 F
   0.9341229999999990    0.9883820000000000    0.7634879999999991 F
   0.3314570000000000    0.9908260000000000    0.3960010000000000 F
   0.6685430000000000    0.9908260000000000    0.8960009999999990 F
   0.6903270000000000    0.5238180000000000    0.2992059999999990 F
   0.0805370000000000    0.1426420000000000    0.3780690000000000 F
   0.0125049999999990    0.4670430000000000    0.5101600000000001 F
   0.3096730000000000    0.5238180000000000    0.7992060000000000 F
   0.9231210000000000    0.0046330000000000    0.0325590000000000 F
   0.9449670000000000    0.5173310000000000    0.8213290000000000 F
   0.8534430000000000    0.3530530000000000    0.3825770000000000 F
   0.1499260000000000    0.6361049999999990    0.9267040000000000 F
   0.0768790000000000    0.0046330000000000    0.5325590000000000 F
   0.9874949999999991    0.4670430000000000    0.0101600000000000 F
   0.1863030000000000    0.0015949999999990    0.9001650000000000 F
   0.0550330000000000    0.5173310000000000    0.3213290000000000 F
   0.1465570000000000    0.3530530000000000    0.8825769999999999 F
   0.8136970000000000    0.0015949999999990    0.4001650000000000 F
