Ga2 Hg6 As2 S2 Cl8
1.0
  -3.7556069999999999   -6.5142740000000003    0.0070770000000000
  -3.7693189999999999    6.5223829999999996    0.0035350000000000
   0.0165979999999990    0.0037630000000000  -12.6434780000000000
Ga Hg As S Cl
2 6 2 2 8
direct
   0.0003260000000000    0.0002560000000000    0.2598500000000000 Ga
   0.9993479999999991    0.9993909999999990    0.7646050000000000 Ga
   0.5018739999999990    0.0036460000000000    0.4710390000000000 Hg
   0.5018659999999990    0.4985920000000000    0.4709390000000000 Hg
   0.9968619999999990    0.4986179999999991    0.4708589999999990 Hg
   0.4980300000000000    0.9960680000000000    0.9606789999999999 Hg
   0.4980509999999990    0.5018110000000000    0.9606819999999990 Hg
   0.0037059999999990    0.5018000000000000    0.9608089999999990 Hg
   0.6673080000000000    0.3340229999999990    0.5760170000000000 As
   0.3339129999999990    0.6671950000000000    0.0662910000000000 As
   0.3334149999999990    0.6668390000000000    0.3817020000000000 S
   0.6661450000000000    0.3326540000000000    0.8718269999999990 S
   0.3220240000000000    0.1608820000000000    0.2088290000000000 Cl
   0.8388650000000000    0.6780060000000000    0.2079900000000000 Cl
   0.8387089999999990    0.1607400000000000    0.2084160000000000 Cl
   0.6774810000000000    0.8386969999999990    0.7123429999999999 Cl
   0.1606320000000000    0.3213669999999990    0.7124239999999999 Cl
   0.1609100000000000    0.8390000000000000    0.7124140000000000 Cl
   0.0003480000000000    0.0002980000000000    0.4366180000000000 Cl
   0.0001870000000000    0.0001160000000000    0.9402680000000000 Cl
