Cu6 Hg3 As4 S12
1.0
   5.0975700000000002   -6.9536020000000001    0.0000000000000000
   5.0975700000000002    6.9536020000000001    0.0000000000000000
  -4.3878480000000000    0.0000000000000000    7.4218999999999999
Cu Hg As S
6 3 4 12
direct
   0.9007339999999990    0.7438910000000000    0.2695460000000000 Cu
   0.2695460000000000    0.9007339999999990    0.7438910000000000 Cu
   0.5804940000000000    0.7867440000000000    0.5281279999999990 Cu
   0.7867440000000000    0.5281279999999990    0.5804940000000000 Cu
   0.7438910000000000    0.2695460000000000    0.9007339999999990 Cu
   0.5281279999999990    0.5804940000000000    0.7867440000000000 Cu
   0.6715920000000000    0.0556040000000000    0.1995829999999990 Hg
   0.0556040000000000    0.1995829999999990    0.6715920000000000 Hg
   0.1995829999999990    0.6715920000000000    0.0556040000000000 Hg
   0.4314989999999990    0.3669929999999990    0.1450110000000000 As
   0.1450110000000000    0.4314989999999990    0.3669929999999990 As
   0.3669929999999990    0.1450110000000000    0.4314989999999990 As
   0.9948610000000000    0.9948610000000000    0.9948610000000000 As
   0.6866470000000000    0.6205229999999990    0.3639930000000000 S
   0.6205229999999990    0.3639930000000000    0.6866470000000000 S
   0.3639930000000000    0.6866470000000000    0.6205229999999990 S
   0.0447689999999990    0.7694960000000000    0.8193779999999991 S
   0.4754730000000000    0.9311200000000001    0.3510919999999990 S
   0.9311200000000001    0.3510919999999990    0.4754730000000000 S
   0.3510919999999990    0.4754730000000000    0.9311200000000001 S
   0.5123510000000000    0.1604489999999990    0.9775290000000000 S
   0.8193779999999991    0.0447689999999990    0.7694960000000000 S
   0.9775290000000000    0.5123510000000000    0.1604489999999990 S
   0.7694960000000000    0.8193779999999991    0.0447689999999990 S
   0.1604489999999990    0.9775290000000000    0.5123510000000000 S
