Zn6 Sb4 H36 Se12 N18
1.0
   7.5957460000000001    0.0000000000000000    0.0000000000000000
   0.0000000000000000   12.2303829999999998    0.0000000000000000
  -0.8421040000000000    0.0000000000000000   13.2282940000000000
Zn Sb H Se N
6 4 36 12 18
direct
   0.3415809999999990    0.7639210000000000    0.8085340000000000 Zn
   0.6584190000000000    0.2639209999999990    0.1914660000000000 Zn
   0.8593120000000000    0.0283859999999990    0.6330239999999990 Zn
   0.1406880000000000    0.5283860000000000    0.3669759999999990 Zn
   0.1409010000000000    0.4019169999999990    0.8488800000000001 Zn
   0.8590989999999999    0.9019170000000000    0.1511200000000000 Zn
   0.0827860000000000    0.7617609999999990    0.5410060000000000 Sb
   0.9172140000000000    0.2617609999999990    0.4589939999999990 Sb
   0.8289339999999999    0.7654559999999990    0.7885150000000000 Sb
   0.1710660000000000    0.2654559999999990    0.2114849999999990 Sb
   0.5953050000000000    0.0301610000000000    0.4956259999999990 H
   0.4046949999999990    0.5301610000000000    0.5043740000000000 H
   0.5277149999999990    0.9566270000000000    0.5897559999999999 H
   0.4722849999999990    0.4566270000000000    0.4102440000000000 H
   0.6520429999999990    0.8999370000000000    0.5084280000000000 H
   0.3479569999999990    0.3999370000000000    0.4915719999999991 H
   0.4619410000000000    0.9680730000000000    0.8022130000000000 H
   0.5380590000000000    0.4680729999999990    0.1977870000000000 H
   0.2648890000000000    0.9698150000000000    0.8520700000000001 H
   0.7351110000000000    0.4698150000000000    0.1479300000000000 H
   0.2749390000000000    0.9587000000000000    0.7283320000000000 H
   0.7250610000000000    0.4587000000000000    0.2716679999999990 H
   0.4094440000000000    0.5232519999999991    0.9187149999999999 H
   0.5905560000000000    0.0232520000000000    0.0812850000000000 H
   0.4305170000000000    0.3945030000000000    0.9610010000000000 H
   0.5694830000000000    0.8945029999999990    0.0389990000000000 H
   0.2947590000000000    0.4784650000000000    0.0128189999999990 H
   0.7052410000000000    0.9784649999999990    0.9871810000000000 H
   0.1397340000000000    0.2042159999999990    0.9185580000000000 H
   0.8602660000000000    0.7042160000000000    0.0814420000000000 H
   0.2738740000000000    0.2073130000000000    0.8256960000000000 H
   0.7261259999999990    0.7073130000000000    0.1743040000000000 H
   0.0571179999999990    0.2017000000000000    0.7982929999999990 H
   0.9428820000000000    0.7017000000000000    0.2017070000000000 H
   0.0438610000000000    0.4632230000000000    0.6636679999999990 H
   0.9561390000000000    0.9632229999999991    0.3363319999999990 H
   0.2283659999999990    0.3945180000000000    0.6674249999999990 H
   0.7716339999999990    0.8945179999999990    0.3325750000000000 H
   0.2315930000000000    0.5259000000000000    0.6978780000000000 H
   0.7684070000000000    0.0259000000000000    0.3021220000000000 H
   0.9115669999999990    0.5179910000000000    0.9317860000000000 H
   0.0884330000000000    0.0179910000000000    0.0682140000000000 H
   0.8913040000000000    0.3873240000000000    0.9699660000000000 H
   0.1086960000000000    0.8873240000000000    0.0300339999999990 H
   0.8024460000000000    0.4287709999999990    0.8576769999999990 H
   0.1975539999999990    0.9287710000000000    0.1423230000000000 H
   0.1227600000000000    0.9726389999999990    0.5455030000000000 Se
   0.8772400000000000    0.4726390000000000    0.4544970000000000 Se
   0.3787720000000000    0.6988850000000000    0.6352070000000000 Se
   0.6212280000000000    0.1988849999999990    0.3647930000000000 Se
   0.0952519999999990    0.7149300000000001    0.9114310000000000 Se
   0.9047480000000000    0.2149300000000000    0.0885690000000000 Se
   0.6018930000000000    0.7044700000000000    0.9157250000000000 Se
   0.3981070000000000    0.2044700000000000    0.0842750000000000 Se
   0.8238789999999990    0.9769089999999990    0.8116510000000000 Se
   0.1761210000000000    0.4769089999999990    0.1883490000000000 Se
   0.8171780000000000    0.2297800000000000    0.6403160000000000 Se
   0.1828219999999990    0.7297800000000001    0.3596840000000000 Se
   0.6337630000000000    0.9709500000000001    0.5476360000000000 N
   0.3662370000000000    0.4709500000000000    0.4523640000000000 N
   0.3360229999999990    0.9360830000000000    0.7968080000000000 N
   0.6639769999999990    0.4360830000000000    0.2031919999999990 N
   0.3423569999999990    0.4565710000000000    0.9444180000000000 N
   0.6576430000000000    0.9565709999999999    0.0555820000000000 N
   0.1542660000000000    0.2341960000000000    0.8471300000000000 N
   0.8457340000000000    0.7341960000000000    0.1528700000000000 N
   0.1622390000000000    0.4536380000000000    0.7050020000000000 N
   0.8377610000000000    0.9536380000000000    0.2949980000000000 N
   0.9086369999999990    0.4377300000000001    0.9088090000000000 N
   0.0913630000000000    0.9377300000000001    0.0911910000000000 N
   0.5832220000000000    0.2091150000000000    0.8402970000000000 N
   0.4167780000000000    0.7091149999999991    0.1597029999999990 N
   0.3583840000000000    0.2512090000000000    0.5968690000000000 N
   0.6416160000000000    0.7512090000000000    0.4031309999999990 N
   0.6427889999999991    0.4731550000000000    0.7168669999999990 N
   0.3572110000000000    0.9731550000000000    0.2831329999999990 N
