Li24 Sb8 S24
1.0
  10.5185049999999993    0.0000000000000000    0.0000000000000000
   0.0000000000000000    8.5168830000000000    0.0000000000000000
   0.0000000000000000    0.3585569999999990   13.7269919999999992
Li Sb S
24 8 24
direct
   0.0417860000000000    0.9294200000000000    0.8958079999999990 Li
   0.4582139999999990    0.9294200000000000    0.3958080000000000 Li
   0.8851660000000000    0.8282889999999991    0.7028169999999990 Li
   0.6148340000000000    0.8282889999999991    0.2028170000000000 Li
   0.4141470000000000    0.8427979999999990    0.9189590000000000 Li
   0.0858530000000000    0.8427979999999990    0.4189589999999990 Li
   0.5927390000000000    0.6972990000000000    0.6748930000000000 Li
   0.9072610000000000    0.6972990000000000    0.1748930000000000 Li
   0.1065349999999990    0.6273259999999991    0.9615889999999990 Li
   0.3934650000000000    0.6273259999999991    0.4615889999999990 Li
   0.9800169999999990    0.5717670000000000    0.6051360000000000 Li
   0.5199830000000000    0.5717670000000000    0.1051360000000000 Li
   0.4800169999999990    0.4282330000000000    0.8948640000000000 Li
   0.0199830000000000    0.4282330000000000    0.3948640000000000 Li
   0.6065349999999990    0.3726740000000000    0.5384110000000000 Li
   0.8934650000000000    0.3726740000000000    0.0384110000000000 Li
   0.0927390000000000    0.3027010000000000    0.8251069999999990 Li
   0.4072610000000000    0.3027010000000000    0.3251070000000000 Li
   0.9141469999999990    0.1572019999999990    0.5810409999999990 Li
   0.5858530000000000    0.1572019999999990    0.0810410000000000 Li
   0.3851660000000000    0.1717110000000000    0.7971830000000000 Li
   0.1148339999999990    0.1717110000000000    0.2971830000000000 Li
   0.5417860000000000    0.0705800000000000    0.6041920000000000 Li
   0.9582140000000000    0.0705800000000000    0.1041919999999990 Li
   0.7462500000000001    0.7708990000000000    0.9423830000000000 Sb
   0.7537500000000000    0.7708990000000000    0.4423829999999990 Sb
   0.2486970000000000    0.7497459999999990    0.6932860000000000 Sb
   0.2513030000000000    0.7497459999999990    0.1932859999999990 Sb
   0.7486969999999999    0.2502540000000000    0.8067139999999990 Sb
   0.7513029999999991    0.2502540000000000    0.3067140000000000 Sb
   0.2462500000000000    0.2291010000000000    0.5576170000000000 Sb
   0.2537500000000000    0.2291010000000000    0.0576169999999990 Sb
   0.2464470000000000    0.9535830000000000    0.8174540000000000 S
   0.2535530000000000    0.9535830000000000    0.3174539999999990 S
   0.0649160000000000    0.8342360000000000    0.5944189999999990 S
   0.4350839999999990    0.8342360000000000    0.0944189999999990 S
   0.4246080000000000    0.8272020000000000    0.5808540000000000 S
   0.0753920000000000    0.8272020000000000    0.0808540000000000 S
   0.9325749999999990    0.6810389999999999    0.8491590000000000 S
   0.5686559999999991    0.6696690000000000    0.8466520000000000 S
   0.5674250000000000    0.6810389999999999    0.3491590000000000 S
   0.9313439999999999    0.6696690000000000    0.3466519999999990 S
   0.7552150000000000    0.5749390000000000    0.5791280000000000 S
   0.7447849999999990    0.5749390000000000    0.0791279999999990 S
   0.2552149999999990    0.4250609999999990    0.9208719999999990 S
   0.2447850000000000    0.4250609999999990    0.4208719999999990 S
   0.0686560000000000    0.3303310000000000    0.6533479999999990 S
   0.4325750000000000    0.3189610000000000    0.6508410000000000 S
   0.4313440000000000    0.3303310000000000    0.1533479999999990 S
   0.0674250000000000    0.3189610000000000    0.1508410000000000 S
   0.9246080000000000    0.1727979999999990    0.9191459999999990 S
   0.5753920000000000    0.1727979999999990    0.4191459999999990 S
   0.5649160000000000    0.1657640000000000    0.9055810000000000 S
   0.9350839999999990    0.1657640000000000    0.4055809999999990 S
   0.7464470000000000    0.0464170000000000    0.6825460000000000 S
   0.7535529999999990    0.0464170000000000    0.1825459999999990 S
