Li3 Sb17 S27
1.0
   8.8402659999999997    0.0000000000000000    0.0000000000000000
  -0.9737060000000000    8.7953620000000008    0.0000000000000000
  -1.4532879999999999   -3.8956320000000000   14.9245000000000001
Li Sb S
3 17 27
direct
   0.1678349999999990    0.1703410000000000    0.5060760000000000 Li
   0.5016769999999990    0.4986480000000000    0.5016290000000000 Li
   0.8357900000000000    0.8325060000000000    0.5015919999999990 Li
   0.6223780000000000    0.3324850000000000    0.9210389999999991 Sb
   0.1263570000000000    0.5940630000000000    0.6174780000000000 Sb
   0.8866569999999990    0.0056600000000000    0.8078320000000000 Sb
   0.5368809999999991    0.0590310000000000    0.3864019999999990 Sb
   0.0523579999999990    0.3319129999999990    0.0671580000000000 Sb
   0.8148740000000000    0.2815269999999990    0.6179540000000000 Sb
   0.2833170000000000    0.9939889999999991    0.9211189999999990 Sb
   0.5344960000000000    0.6540700000000000    0.8071929999999991 Sb
   0.4678969999999991    0.3199300000000000    0.1829760000000000 Sb
   0.7103220000000000    0.0023569999999990    0.0693140000000000 Sb
   0.2059170000000000    0.7236420000000000    0.3873089999999990 Sb
   0.9583929999999991    0.6632610000000000    0.9290590000000000 Sb
   0.4525659999999990    0.9523590000000000    0.6109340000000000 Sb
   0.1346939999999990    0.9956849999999990    0.1874819999999990 Sb
   0.8702900000000001    0.3883000000000000    0.3856850000000000 Sb
   0.3793400000000000    0.6599410000000000    0.0677229999999990 Sb
   0.7954239999999990    0.6578010000000000    0.1864190000000000 Sb
   0.1567230000000000    0.0149330000000000    0.7741960000000000 S
   0.1044060000000000    0.3291830000000000    0.6539360000000000 S
   0.2208260000000000    0.0150289999999990    0.3507619999999990 S
   0.5607850000000000    0.0227790000000000    0.8732550000000000 S
   0.1683160000000000    0.3035490000000000    0.2224189999999990 S
   0.1802840000000000    0.4677650000000000    0.4627770000000000 S
   0.4770749999999990    0.1986379999999990    0.5352570000000000 S
   0.5036480000000000    0.3628059999999990    0.7745480000000000 S
   0.2359339999999990    0.6889360000000000    0.8807510000000000 S
   0.0970019999999990    0.6496600000000000    0.1250200000000000 S
   0.8415870000000000    0.1298570000000000    0.4625910000000000 S
   0.4386859999999990    0.6483590000000000    0.6478290000000000 S
   0.5592460000000000    0.3436720000000000    0.3533700000000000 S
   0.1571700000000000    0.8790089999999990    0.5348189999999990 S
   0.8989250000000000    0.3528509999999990    0.8794250000000000 S
   0.3248260000000000    0.3474339999999990    0.0102379999999990 S
   0.7569810000000000    0.3168960000000000    0.1307849999999990 S
   0.5083200000000000    0.6417300000000000    0.2231759999999990 S
   0.5129819999999990    0.7956690000000000    0.4661740000000000 S
   0.8195850000000000    0.5381420000000000    0.5345019999999990 S
   0.8290839999999990    0.6916329999999991    0.7761500000000001 S
   0.4324780000000000    0.9924940000000000    0.1301230000000000 S
   0.7822960000000000    0.9924630000000000    0.6471350000000000 S
   0.8916900000000001    0.6788750000000000    0.3525600000000000 S
   0.6645369999999990    0.6718689999999991    0.0039770000000000 S
   0.8377319999999990    0.9710050000000000    0.2212770000000000 S
   0.9940909999999999    0.0035700000000000    0.0013959999999990 S
