Sb8 S12 O48
1.0
   4.7843293200000003    0.0000000000000000    0.0000000000000000
   0.0000000000000000   13.0880879799999992    0.0276708800000000
   0.0000000000000000   10.4670323300000003   14.2486283000000000
Sb S O
8 12 48
direct
   0.6963629800000000    0.1180262300000000    0.0596234300000000 Sb
   0.1963629800000000    0.8819737700000000    0.4403765700000000 Sb
   0.3036370200000000    0.8819737700000000    0.9403765700000000 Sb
   0.8036370200000000    0.1180262300000000    0.5596234300000000 Sb
   0.9301189500000000    0.3500117200000000    0.2200432100000000 Sb
   0.4301189500000000    0.6499882800000000    0.2799567900000000 Sb
   0.0698810500000000    0.6499882800000000    0.7799567900000001 Sb
   0.5698810500000000    0.3500117200000000    0.7200432100000000 Sb
   0.1363502400000000    0.1633514200000000    0.8913211600000001 S
   0.6363502400000001    0.8366485800000000    0.6086788400000001 S
   0.8636497600000000    0.8366485800000000    0.1086788400000000 S
   0.3636497600000000    0.1633514200000000    0.3913211600000000 S
   0.1761658300000000    0.1752178800000000    0.1722851000000000 S
   0.6761658300000000    0.8247821200000001    0.3277149000000000 S
   0.8238341700000000    0.8247821200000001    0.8277148999999990 S
   0.3238341700000000    0.1752178800000000    0.6722851000000000 S
   0.4373097200000000    0.5580464900000001    0.1111349900000000 S
   0.9373097200000000    0.4419535100000000    0.3888650100000000 S
   0.5626902800000000    0.4419535100000000    0.8888650100000001 S
   0.0626902800000000    0.5580464900000001    0.6111349900000000 S
   0.1459874100000000    0.2722071800000000    0.7892749500000000 O
   0.6459874100000000    0.7277928200000000    0.7107250500000000 O
   0.8540125900000001    0.7277928200000000    0.2107250500000000 O
   0.3540125900000000    0.2722071800000000    0.2892749500000000 O
   0.9497420200000000    0.2060980100000000    0.9353804300000000 O
   0.4497420200000000    0.7939019900000001    0.5646195700000000 O
   0.0502579800000000    0.7939019900000001    0.0646195700000000 O
   0.5502579800000000    0.2060980100000000    0.4353804300000000 O
   0.4177082400000000    0.1364531000000000    0.9295371700000000 O
   0.9177082400000001    0.8635469000000000    0.5704628300000000 O
   0.5822917600000000    0.8635469000000000    0.0704628300000000 O
   0.0822917600000000    0.1364531000000000    0.4295371700000000 O
   0.0127915100000000    0.0522242400000000    0.9024865200000001 O
   0.5127915100000000    0.9477757600000000    0.5975134800000000 O
   0.9872084900000000    0.9477757600000000    0.0975134800000000 O
   0.4872084900000000    0.0522242400000000    0.4024865200000000 O
   0.0637510700000000    0.1483975800000000    0.1056912900000000 O
   0.4770556300000000    0.1701882900000000    0.1688155500000000 O
   0.5229443700000000    0.8298117100000000    0.8311844500000000 O
   0.0229443700000000    0.1701882900000000    0.6688155500000000 O
   0.9573565600000000    0.5639983500000000    0.6852677400000000 O
   0.4573565600000000    0.4360016500000000    0.8147322600000000 O
   0.0426434400000000    0.4360016500000000    0.3147322600000000 O
   0.5426434400000000    0.5639983500000000    0.1852677400000000 O
   0.3646232900000000    0.5156383200000000    0.6294119200000000 O
   0.8646232900000000    0.4843616800000000    0.8705880800000000 O
   0.6353767100000001    0.4843616800000000    0.3705880800000000 O
   0.1353767100000000    0.5156383200000000    0.1294119200000000 O
   0.0672137900000000    0.6815073700000001    0.5183624900000000 O
   0.5672137900000001    0.3184926300000000    0.9816375100000000 O
   0.9327862100000001    0.3184926300000000    0.4816375100000000 O
   0.4327862100000000    0.6815073700000001    0.0183624900000000 O
   0.8934475900000001    0.4683141900000000    0.6057779500000000 O
   0.3934475900000000    0.5316858100000000    0.8942220500000000 O
   0.1065524100000000    0.5316858100000000    0.3942220500000000 O
   0.6065524100000000    0.4683141900000000    0.1057779500000000 O
   0.4445781300000000    0.0919741300000000    0.7650573100000000 O
   0.9445781300000000    0.9080258700000000    0.7349426900000000 O
   0.5554218700000000    0.9080258700000000    0.2349426900000000 O
   0.0554218700000000    0.0919741300000000    0.2650573100000000 O
   0.4204250200000000    0.3098665600000000    0.6300571300000000 O
   0.9204250200000000    0.6901334400000000    0.8699428700000000 O
   0.5795749800000000    0.6901334400000000    0.3699428700000000 O
   0.0795749800000000    0.3098665600000000    0.1300571300000000 O
   0.4362489300000000    0.1483975800000000    0.6056912900000000 O
   0.9362489300000000    0.8516024200000000    0.8943087100000000 O
   0.5637510700000000    0.8516024200000000    0.3943087100000000 O
   0.9770556300000001    0.8298117100000000    0.3311844500000000 O
