Cs4 Bi16 Te24
1.0
   4.4597920000000002    0.0000000000000000    0.0000000000000000
  -0.0180040000000000   14.6309710000000006    0.0000000000000000
  -2.2115089999999999   -5.0894019999999998   25.8077460000000016
Cs Bi Te
4 16 24
direct
   0.6887380000000000    0.5159300000000000    0.3749540000000000 Cs
   0.0629560000000000    0.5102409999999999    0.1096159999999990 Cs
   0.9463570000000000    0.4918079999999990    0.8928119999999991 Cs
   0.3202029999999990    0.4829429999999990    0.6256640000000000 Cs
   0.1588760000000000    0.0918220000000000    0.3268770000000000 Bi
   0.7064309999999990    0.9117329999999990    0.4258230000000000 Bi
   0.4099300000000000    0.0615929999999990    0.8224469999999990 Bi
   0.9616009999999990    0.8619730000000000    0.9200240000000000 Bi
   0.8668979999999999    0.2500990000000000    0.7274520000000000 Bi
   0.5956990000000000    0.9365650000000000    0.1780800000000000 Bi
   0.0176430000000000    0.7888710000000000    0.0298529999999990 Bi
   0.8367140000000000    0.9076200000000001    0.6745869999999990 Bi
   0.1317090000000000    0.7495660000000000    0.2725880000000000 Bi
   0.2646200000000000    0.7399890000000000    0.5293209999999990 Bi
   0.0459409999999990    0.1367600000000000    0.0801670000000000 Bi
   0.9918709999999999    0.2096200000000000    0.9704809999999990 Bi
   0.7364600000000001    0.2596770000000000    0.4710720000000000 Bi
   0.6192100000000000    0.2766470000000000    0.2297439999999990 Bi
   0.3844730000000000    0.7212270000000000    0.7700900000000001 Bi
   0.2865910000000000    0.0886110000000000    0.5754960000000000 Bi
   0.3236219999999990    0.7585160000000000    0.6488200000000001 Te
   0.5355210000000000    0.9610600000000000    0.0659240000000000 Te
   0.2412040000000000    0.4007840000000000    0.4790439999999990 Te
   0.8930629999999991    0.8992329999999999    0.7909370000000000 Te
   0.0847089999999990    0.7862700000000000    0.1616910000000000 Te
   0.8754529999999990    0.5792870000000000    0.7527060000000000 Te
   0.1985470000000000    0.7594900000000001    0.4058460000000000 Te
   0.6731969999999990    0.2410489999999990    0.3516849999999990 Te
   0.7601080000000000    0.5988580000000000    0.5214850000000000 Te
   0.1080810000000000    0.0986959999999990    0.2103980000000000 Te
   0.5627369999999990    0.2786949999999990    0.1153840000000000 Te
   0.3485450000000000    0.0710650000000000    0.6927829999999990 Te
   0.9184340000000000    0.2121720000000000    0.8382259999999990 Te
   0.4413669999999990    0.7199650000000000    0.8845620000000000 Te
   0.3800860000000000    0.3897790000000000    0.7540620000000000 Te
   0.7739960000000000    0.9245059999999991    0.5508940000000000 Te
   0.6500560000000000    0.9284040000000000    0.3084139999999990 Te
   0.6193300000000000    0.6095149999999990    0.2467579999999990 Te
   0.4668609999999990    0.0365550000000000    0.9347000000000001 Te
   0.5088050000000000    0.6434170000000000    0.0153450000000000 Te
   0.1277039999999990    0.4186789999999990    0.2478890000000000 Te
   0.2259870000000000    0.0761550000000000    0.4507500000000000 Te
   0.7986909999999990    0.2411660000000000    0.5949230000000000 Te
   0.4977020000000000    0.3548190000000000    0.9862839999999991 Te
