Sm2 Mn3 Sb4 S12
1.0
   1.9344960000000000    9.9844690000000007    0.0000000000000000
  -1.9344960000000000    9.9844690000000007    0.0000000000000000
   0.0000000000000000    8.8601569999999992   11.9689909999999990
Sm Mn Sb S
2 3 4 12
direct
   0.2408050000000000    0.2408050000000000    0.8627100000000001 Sm
   0.7591950000000000    0.7591950000000000    0.1372900000000000 Sm
   0.1984490000000000    0.1984490000000000    0.6218230000000000 Mn
   0.8015510000000000    0.8015510000000000    0.3781770000000000 Mn
   0.0000000000000000    0.0000000000000000    0.0000000000000000 Mn
   0.1066100000000000    0.1066100000000000    0.4517100000000001 Sb
   0.8933900000000001    0.8933900000000001    0.5482900000000001 Sb
   0.4592070000000000    0.4592070000000000    0.8162659999999990 Sb
   0.5407930000000000    0.5407930000000000    0.1837339999999990 Sb
   0.0572989999999990    0.0572989999999990    0.8024209999999991 S
   0.9427010000000000    0.9427010000000000    0.1975790000000000 S
   0.6019820000000000    0.6019820000000000    0.9767380000000000 S
   0.3980180000000000    0.3980180000000000    0.0232619999999990 S
   0.8295560000000000    0.8295560000000000    0.8979790000000000 S
   0.1704439999999990    0.1704439999999990    0.1020210000000000 S
   0.4097510000000000    0.4097510000000000    0.6526810000000000 S
   0.5902490000000000    0.5902490000000000    0.3473190000000000 S
   0.2577280000000000    0.2577280000000000    0.2903060000000000 S
   0.7422719999999990    0.7422719999999990    0.7096939999999990 S
   0.3416970000000000    0.3416970000000000    0.4537989999999990 S
   0.6583030000000000    0.6583030000000000    0.5462009999999990 S
