Tl12 Ag12 As8 S24
1.0
  12.0095550000000006    0.0000000000000000    0.0000000000000000
   0.0000000000000000   11.3636110000000006    0.0000000000000000
   0.0000000000000000    6.1101070000000002   10.4761670000000002
Tl Ag As S
12 12 8 24
direct
   0.9851380000000000    0.8001840000000000    0.4765959999999990 Tl
   0.1161030000000000    0.2162379999999990    0.8869420000000000 Tl
   0.7527419999999990    0.1618020000000000    0.2732560000000000 Tl
   0.4851379999999990    0.1998160000000000    0.0234039999999990 Tl
   0.5148619999999990    0.8001840000000000    0.9765959999999990 Tl
   0.0148619999999990    0.1998160000000000    0.5234040000000000 Tl
   0.3838970000000000    0.2162379999999990    0.3869420000000000 Tl
   0.6161030000000000    0.7837620000000000    0.6130580000000000 Tl
   0.2527419999999990    0.8381980000000000    0.2267440000000000 Tl
   0.2472579999999990    0.8381980000000000    0.7267439999999999 Tl
   0.7472580000000000    0.1618020000000000    0.7732559999999991 Tl
   0.8838969999999990    0.7837620000000000    0.1130579999999990 Tl
   0.6254290000000000    0.5328610000000000    0.5458640000000000 Ag
   0.8745710000000000    0.5328610000000000    0.0458639999999990 Ag
   0.1254289999999990    0.4671389999999990    0.9541360000000000 Ag
   0.3470260000000000    0.8855800000000000    0.4287620000000000 Ag
   0.3589070000000000    0.4703750000000000    0.0728370000000000 Ag
   0.8470259999999999    0.1144200000000000    0.0712380000000000 Ag
   0.1529740000000000    0.8855800000000000    0.9287620000000000 Ag
   0.3745710000000000    0.4671389999999990    0.4541360000000000 Ag
   0.6410930000000000    0.5296250000000000    0.9271630000000000 Ag
   0.6529739999999991    0.1144200000000000    0.5712380000000000 Ag
   0.8589070000000000    0.5296250000000000    0.4271629999999990 Ag
   0.1410930000000000    0.4703750000000000    0.5728369999999990 Ag
   0.9031439999999999    0.8420620000000000    0.7560970000000000 As
   0.5968559999999991    0.8420620000000000    0.2560969999999990 As
   0.1444690000000000    0.5062170000000000    0.2440530000000000 As
   0.4031440000000000    0.1579380000000000    0.7439030000000000 As
   0.3555310000000000    0.5062170000000000    0.7440530000000000 As
   0.8555309999999990    0.4937829999999990    0.7559469999999990 As
   0.6444690000000000    0.4937829999999990    0.2559470000000000 As
   0.0968560000000000    0.1579380000000000    0.2439029999999990 As
   0.8229600000000000    0.9946290000000000    0.5618870000000000 S
   0.5755810000000000    0.3789010000000000    0.1600540000000000 S
   0.7554480000000000    0.7447420000000000    0.8909410000000000 S
   0.4160430000000000    0.6369319999999991    0.5371089999999999 S
   0.8248479999999990    0.4255180000000000    0.2835590000000000 S
   0.9678589999999990    0.9936600000000001    0.8123710000000000 S
   0.2554480000000000    0.2552580000000000    0.6090590000000000 S
   0.0321409999999990    0.0063400000000000    0.1876290000000000 S
   0.5321410000000000    0.9936600000000001    0.3123710000000000 S
   0.2445520000000000    0.2552580000000000    0.1090589999999990 S
   0.9244190000000000    0.3789010000000000    0.6600539999999990 S
   0.6751520000000000    0.4255180000000000    0.7835590000000000 S
   0.4244190000000000    0.6210990000000000    0.8399460000000000 S
   0.6770400000000001    0.9946290000000000    0.0618870000000000 S
   0.1770400000000000    0.0053710000000000    0.4381130000000000 S
   0.4678589999999990    0.0063400000000000    0.6876289999999990 S
   0.5839569999999999    0.3630680000000000    0.4628910000000000 S
   0.1751520000000000    0.5744819999999990    0.7164410000000000 S
   0.3229600000000000    0.0053710000000000    0.9381130000000000 S
   0.0755810000000000    0.6210990000000000    0.3399459999999990 S
   0.9160429999999991    0.3630680000000000    0.9628909999999991 S
   0.7445520000000000    0.7447420000000000    0.3909410000000000 S
   0.3248479999999990    0.5744819999999990    0.2164410000000000 S
   0.0839569999999990    0.6369319999999991    0.0371089999999990 S
