Li12 Sb4 S12
1.0
  11.9247560000000004    0.0000000000000000    0.0000000000000000
   0.0000000000000000    4.1542120000000002    0.0000000000000000
   0.0000000000000000    3.7032810000000000   12.1799389999999992
Li Sb S
12 4 12
direct
   0.4505050000000000    0.8902780000000000    0.6133250000000000 Li
   0.9733360000000000    0.8144389999999990    0.6253850000000000 Li
   0.2233050000000000    0.4255190000000000    0.0172580000000000 Li
   0.0494950000000000    0.8902780000000000    0.1133250000000000 Li
   0.5266640000000000    0.8144389999999990    0.1253850000000000 Li
   0.7233050000000000    0.5744810000000000    0.4827420000000000 Li
   0.2766949999999990    0.4255190000000000    0.5172580000000000 Li
   0.4733360000000000    0.1855610000000000    0.8746149999999990 Li
   0.9505049999999990    0.1097220000000000    0.8866750000000000 Li
   0.7766949999999990    0.5744810000000000    0.9827420000000000 Li
   0.0266640000000000    0.1855610000000000    0.3746150000000000 Li
   0.5494950000000000    0.1097220000000000    0.3866750000000000 Li
   0.6934300000000001    0.5221200000000000    0.7488180000000000 Sb
   0.8065700000000000    0.5221200000000000    0.2488179999999990 Sb
   0.1934300000000000    0.4778800000000000    0.7511820000000000 Sb
   0.3065700000000000    0.4778800000000000    0.2511820000000000 Sb
   0.6547980000000000    0.9824229999999990    0.5755020000000000 S
   0.5870870000000000    0.6622380000000000    0.8975350000000000 S
   0.8452020000000000    0.9824229999999990    0.0755020000000000 S
   0.8815830000000000    0.6820180000000000    0.8032049999999999 S
   0.9129130000000000    0.6622380000000000    0.3975349999999990 S
   0.6184170000000000    0.6820180000000000    0.3032050000000000 S
   0.3815830000000000    0.3179820000000000    0.6967949999999991 S
   0.0870870000000000    0.3377620000000000    0.6024649999999990 S
   0.1184170000000000    0.3179820000000000    0.1967950000000000 S
   0.1547980000000000    0.0175770000000000    0.9244979999999990 S
   0.4129130000000000    0.3377620000000000    0.1024650000000000 S
   0.3452020000000000    0.0175770000000000    0.4244980000000000 S
