Cu2 Bi4 Se8 O24
1.0
   4.3928499299999997   -0.0154098200000000   -0.0001459700000000
  -0.7153969600000000    8.1837564700000005   -0.0010932000000000
  -0.0007956500000000   -0.0022556900000000   15.8682665099999998
Cu Bi Se O
2 4 8 24
direct
  -0.0000000000000000    0.0000000000000000    0.0000000000000000 Cu
  -0.0000000000000000    0.5000000000000000    0.5000000000000000 Cu
   0.5007560200000000    0.5403601800000000    0.2723939400000000 Bi
   0.4992439800000000    0.4596398200000000    0.7276060600000001 Bi
   0.4990845000000000    0.9595590600000000    0.7726576700000000 Bi
   0.5009155000000000    0.0404409400000000    0.2273423300000000 Bi
   0.4472449100000000    0.2551146700000000    0.4290529200000000 Se
   0.0259918700000000    0.3705125900000000    0.1263615600000000 Se
   0.5527993200000000    0.2450303100000000    0.9292061600000000 Se
   0.4472006800000000    0.7549696900000000    0.0707938400000000 Se
   0.9740081300000000    0.6294874100000000    0.8736384400000000 Se
   0.9737965300000000    0.1294324800000000    0.6267377700000000 Se
   0.5527550900000000    0.7448853300000000    0.5709470800000001 Se
   0.0262034700000000    0.8705675200000000    0.3732622300000000 Se
   0.5397111900000000    0.7606309300000000    0.1776128300000000 O
   0.4133868500000000    0.8884911999999990    0.3524604300000000 O
   0.9539557999999990    0.9763207500000001    0.2806447200000000 O
   0.5868154000000000    0.6115973300000001    0.8527838999999990 O
   0.0666279600000000    0.8288040000000000    0.8509656900000000 O
   0.5866131500000000    0.1115087999999990    0.6475385700000000 O
   0.7946289600000001    0.2835446900000000    0.4757039300000000 O
   0.6691207100000001    0.5518541700000000    0.5717456900000000 O
   0.0662833300000000    0.3287157300000000    0.6495352300000000 O
   0.7947081100000000    0.7834477999999990    0.0242474300000000 O
   0.5399234200000000    0.2607447300000000    0.3222423200000000 O
   0.9337166700000000    0.6712842700000000    0.3504647700000000 O
   0.9536709900000000    0.4761077100000000    0.2190403400000000 O
   0.6690590700000000    0.0519850400000000    0.9283430500000001 O
   0.4131845999999990    0.3884026700000000    0.1472161000000000 O
   0.0460442000000000    0.0236792500000000    0.7193552800000000 O
   0.4600765800000000    0.7392552700000000    0.6777576800000000 O
   0.4602888100000000    0.2393690700000000    0.8223871700000001 O
   0.2053710400000000    0.7164553100000001    0.5242960700000000 O
   0.3308792900000000    0.4481458300000000    0.4282543100000000 O
   0.9333720400000001    0.1711960000000000    0.1490343100000000 O
   0.3309409300000000    0.9480149600000001    0.0716569500000000 O
   0.0463290100000000    0.5238922900000000    0.7809596600000001 O
   0.2052918900000000    0.2165522000000000    0.9757525700000000 O
