Rb6 As2 Se32
1.0
   0.0004944800000000    8.4705693600000007    8.4706549500000001
   8.4705838500000006    0.0005816700000000    8.4705677399999999
   8.4720866800000003    8.4719839900000000   -0.0009202400000000
Rb As Se
6 2 32
direct
   0.4999931600000000    0.4999912999999990    0.5000035900000001 Rb
   0.7499923300000000    0.7499950200000001    0.7500065400000000 Rb
   0.1249942999999990    0.1249954500000000    0.1250029900000000 Rb
   0.1249956900000000    0.1249986100000000    0.6250125300000000 Rb
   0.1250088500000000    0.6249890800000000    0.1250004200000000 Rb
   0.6249926000000000    0.1249919600000000    0.1250168300000000 Rb
   0.2498927700000000    0.2499093400000000    0.2501418200000000 As
   0.0000435500000000    0.0000383700000000   -0.0000683600000000 As
   0.7958377300000000    0.1766440000000000    0.5918184900000000 Se
   0.4357187600000000    0.7958311500000000    0.5918150400000000 Se
   0.5918367600000000    0.7957614100000000    0.1766374600000000 Se
   0.5918606800000000    0.1766431000000000    0.4357626200000000 Se
   0.5918578000000000    0.4357963400000000    0.7957214700000000 Se
   0.4357664900000000    0.5918461800000000    0.1766234600000000 Se
   0.3293809700000000    0.3294431300000000    0.0116946000000000 Se
   0.0116576300000000    0.3294020500000000    0.3295321600000000 Se
   0.3293774300000000    0.0116610000000000    0.3294942200000000 Se
   0.3294154400000000    0.3294273500000000    0.3294763000000000 Se
   0.9206385400000000    0.9205113600000000    0.2383321400000000 Se
   0.2383279300000000    0.9206077100000000    0.9204979000000000 Se
   0.9205682100000000    0.2383193200000000    0.9205457200000000 Se
   0.9205884000000000    0.9205619400000000    0.9205437100000000 Se
   0.0733877600000000    0.4542103600000000    0.8142164500000000 Se
   0.8142461800000000    0.0734050900000000    0.4542352700000000 Se
   0.4542113700000000    0.8142685400000000    0.0733736800000000 Se
   0.0733931800000000    0.6581251500000000    0.4542448500000000 Se
   0.0734079600000000    0.8142559200000000    0.6581458000000000 Se
   0.4542262999999990    0.6581874500000000    0.8142132500000000 Se
   0.6581586800000000    0.0734060600000000    0.8142233000000000 Se
   0.6581421600000000    0.4542318300000000    0.0733633100000000 Se
   0.8142572500000000    0.4542142900000000    0.6581541800000000 Se
   0.4541910600000000    0.0734260800000000    0.6581434600000000 Se
   0.8142481100000000    0.6581379800000000    0.0733734600000000 Se
   0.6581209600000000    0.8142576500000001    0.4542415600000000 Se
   0.1766531900000000    0.7957646600000000    0.4357463300000000 Se
   0.4357788900000000    0.1766418900000000    0.7957644100000000 Se
   0.7957941800000000    0.4357222800000000    0.1766367300000000 Se
   0.1766385700000000    0.5918261500000001    0.7957304100000000 Se
   0.1766293700000000    0.4357202700000000    0.5918258200000001 Se
   0.7957658300000000    0.5918331800000000    0.4357570700000000 Se
