K12 Bi4 P8 S32
1.0
   6.8658983500000001    0.0000000000000000    0.0000000000000000
   0.0000000000000000    9.0903037900000001    0.0000000000000000
   0.0000000000000000    0.0000000000000000   24.0828808899999984
K Bi P S
12 4 8 32
direct
   0.9852925400000000    0.7468193900000000    0.9193948000000000 K
   0.0147074600000000    0.2468193900000000    0.5806051999999990 K
   0.4889615900000000    0.4768302400000000    0.8111494100000001 K
   0.5110384100000001    0.9768302400000001    0.6888505900000000 K
   0.0027084800000000    0.0912137600000000    0.7853694700000000 K
   0.4972915200000000    0.9087862400000000    0.2853694700000000 K
   0.4852925400000000    0.7531806100000000    0.0806052000000000 K
   0.9972915200000000    0.5912137600000000    0.7146305300000000 K
   0.9889615900000001    0.0231697600000000    0.1888505900000000 K
   0.5027084800000000    0.4087862400000000    0.2146305300000000 K
   0.0110384100000000    0.5231697600000000    0.3111494100000000 K
   0.5147074600000000    0.2531806100000000    0.4193947999999990 K
   0.0596204800000000    0.3545817700000000    0.0520698100000000 Bi
   0.4403795200000000    0.6454182300000000    0.5520698100000000 Bi
   0.5596204800000000    0.1454182300000000    0.9479301900000000 Bi
   0.9403795200000000    0.8545817700000000    0.4479301900000000 Bi
   0.5082041800000000    0.3880470900000000    0.6561724200000000 P
   0.0321604700000000    0.8497391400000001    0.5916592700000000 P
   0.9678395300000000    0.3497391400000000    0.9083407300000000 P
   0.0082041800000000    0.1119529100000000    0.3438275800000000 P
   0.4678395300000000    0.1502608600000000    0.0916592700000000 P
   0.4917958200000000    0.8880470900000000    0.8438275800000000 P
   0.9917958200000000    0.6119529100000000    0.1561724200000000 P
   0.5321604700000000    0.6502608600000001    0.4083407300000000 P
   0.2591209400000000    0.9378947300000000    0.5484166800000000 S
   0.7303514999999990    0.8113218100000000    0.8057993500000000 S
   0.2490796900000000    0.2083435500000000    0.3146943700000000 S
   0.7408790600000000    0.4378947300000000    0.9515833200000000 S
   0.9672884500000000    0.3857175700000000    0.1648915700000000 S
   0.5628433800000000    0.8769744700000001    0.4184297800000000 S
   0.5276309100000001    0.5878228000000000    0.3293087900000000 S
   0.5153065400000000    0.8537445900000000    0.9298765999999991 S
   0.2408790600000000    0.0621052700000000    0.0484166800000000 S
   0.2303515000000000    0.6886781900000000    0.1942006500000000 S
   0.7782588800000000    0.9149139300000000    0.5540504800000000 S
   0.7490796900000000    0.2916564500000000    0.6853056300000000 S
   0.0628433800000000    0.6230255300000000    0.5815702200000000 S
   0.9723690900000000    0.4121771999999990    0.8293087900000000 S
   0.4846934600000000    0.3537445900000000    0.5701233999999999 S
   0.0327115500000000    0.8857175700000001    0.3351084300000000 S
   0.9846934600000000    0.1462554100000000    0.4298766000000000 S
   0.9371566200000000    0.1230255300000000    0.9184297800000000 S
   0.2217411200000000    0.4149139300000000    0.9459495200000000 S
   0.4672884500000000    0.1142824300000000    0.8351084300000000 S
   0.4371566200000000    0.3769744700000000    0.0815702200000000 S
   0.2509203100000000    0.7916564500000001    0.8146943700000000 S
   0.0276309100000000    0.9121771999999990    0.6706912100000000 S
   0.7217411200000000    0.0850860700000000    0.0540504800000000 S
   0.2696485000000000    0.3113218100000000    0.6942006500000000 S
   0.7509203100000000    0.7083435500000000    0.1853056300000000 S
   0.7696485000000000    0.1886781900000000    0.3057993500000000 S
   0.5327115500000000    0.6142824300000000    0.6648915700000000 S
   0.2782588800000000    0.5850860700000000    0.4459495200000000 S
   0.0153065400000000    0.6462554100000000    0.0701234000000000 S
   0.4723690900000000    0.0878227999999990    0.1706912100000000 S
   0.7591209400000000    0.5621052700000000    0.4515833200000000 S
