As20 Pb12 S40
1.0
   8.1717940000000002    0.0000000000000000    0.0000000000000000
   0.0000000000000000    8.7400240000000000    0.0000000000000000
   0.0000000000000000    6.4158600000000003   25.6745589999999986
As Pb S
20 12 40
direct
   0.3375910000000000    0.2896460000000000    0.0472740000000000 As
   0.6624089999999990    0.7103539999999990    0.9527260000000000 As
   0.1624090000000000    0.2896460000000000    0.5472739999999990 As
   0.8053640000000000    0.1420410000000000    0.4325130000000000 As
   0.1569500000000000    0.2529340000000000    0.3517610000000000 As
   0.9918420000000000    0.3890130000000000    0.9521860000000000 As
   0.5081580000000000    0.3890130000000000    0.4521860000000000 As
   0.4918420000000000    0.6109869999999999    0.5478140000000000 As
   0.6494030000000000    0.3084159999999990    0.1606370000000000 As
   0.8505969999999990    0.3084159999999990    0.6606369999999990 As
   0.8430500000000001    0.7470660000000000    0.6482390000000000 As
   0.6946359999999990    0.1420410000000000    0.9325129999999990 As
   0.1946360000000000    0.8579589999999990    0.5674870000000000 As
   0.3430500000000000    0.2529340000000000    0.8517610000000000 As
   0.3053639999999990    0.8579589999999990    0.0674869999999990 As
   0.0081580000000000    0.6109869999999999    0.0478139999999990 As
   0.8375910000000000    0.7103539999999990    0.4527259999999990 As
   0.1494029999999990    0.6915840000000000    0.3393629999999990 As
   0.3505970000000000    0.6915840000000000    0.8393630000000000 As
   0.6569500000000000    0.7470660000000000    0.1482389999999990 As
   0.7263930000000000    0.9844809999999991    0.8013180000000000 Pb
   0.7628210000000000    0.4750000000000000    0.2908119999999990 Pb
   0.4132849999999990    0.9023249999999990    0.4208200000000000 Pb
   0.9132850000000000    0.0976750000000000    0.0791800000000000 Pb
   0.2628209999999990    0.5250000000000000    0.2091879999999990 Pb
   0.2371790000000000    0.5250000000000000    0.7091879999999990 Pb
   0.0867150000000000    0.9023249999999990    0.9208200000000001 Pb
   0.7371789999999990    0.4750000000000000    0.7908120000000000 Pb
   0.2736070000000000    0.0155190000000000    0.1986820000000000 Pb
   0.2263929999999990    0.0155190000000000    0.6986819999999990 Pb
   0.7736069999999990    0.9844809999999991    0.3013180000000000 Pb
   0.5867150000000000    0.0976750000000000    0.5791800000000000 Pb
   0.3150310000000000    0.4828460000000000    0.3247130000000000 S
   0.0191539999999990    0.0543820000000000    0.5885450000000000 S
   0.4970779999999990    0.7377020000000000    0.7646069999999990 S
   0.8295220000000000    0.8230120000000000    0.0065860000000000 S
   0.0129190000000000    0.2577680000000000    0.2781520000000000 S
   0.3295220000000000    0.1769879999999990    0.4934139999999990 S
   0.6557550000000000    0.7083370000000000    0.3887649999999990 S
   0.0297279999999990    0.6380580000000000    0.6015050000000000 S
   0.6836090000000000    0.4074080000000000    0.5144409999999990 S
   0.8243579999999990    0.1075850000000000    0.1827840000000000 S
   0.6246550000000000    0.1643609999999990    0.3663829999999990 S
   0.1704780000000000    0.1769879999999990    0.9934139999999991 S
   0.1849690000000000    0.4828460000000000    0.8247129999999990 S
   0.0029219999999990    0.7377020000000000    0.2646070000000000 S
   0.3243580000000000    0.8924150000000000    0.3172160000000000 S
   0.8150309999999999    0.5171540000000000    0.1752870000000000 S
   0.4808460000000000    0.0543820000000000    0.0885450000000000 S
   0.1836090000000000    0.5925920000000000    0.9855590000000000 S
   0.6756420000000000    0.1075850000000000    0.6827839999999999 S
   0.9808460000000000    0.9456180000000000    0.4114549999999990 S
   0.1756420000000000    0.8924150000000000    0.8172159999999991 S
   0.5129190000000000    0.7422320000000000    0.2218480000000000 S
   0.3163910000000000    0.5925920000000000    0.4855589999999990 S
   0.8442449999999990    0.7083370000000000    0.8887649999999990 S
   0.4702719999999990    0.6380580000000000    0.1015050000000000 S
   0.9970779999999991    0.2622980000000000    0.7353930000000000 S
   0.3442449999999990    0.2916630000000000    0.6112350000000000 S
   0.5297280000000000    0.3619420000000000    0.8984949999999990 S
   0.8753449999999990    0.1643609999999990    0.8663830000000000 S
   0.6704780000000000    0.8230120000000000    0.5065860000000000 S
   0.5029220000000000    0.2622980000000000    0.2353930000000000 S
   0.3753450000000000    0.8356389999999990    0.6336170000000000 S
   0.1246549999999990    0.8356389999999990    0.1336169999999990 S
   0.1557550000000000    0.2916630000000000    0.1112350000000000 S
   0.9702719999999990    0.3619420000000000    0.3984950000000000 S
   0.9870810000000000    0.7422320000000000    0.7218479999999990 S
   0.6849689999999991    0.5171540000000000    0.6752870000000000 S
   0.5191540000000000    0.9456180000000000    0.9114549999999990 S
   0.8163910000000000    0.4074080000000000    0.0144409999999990 S
   0.4870810000000000    0.2577680000000000    0.7781520000000000 S
