Cs8 As2 H10 Se6 O32
1.0
  13.9232200000000006    0.0000000000000000    0.0000000000000000
   0.0000000000000000    6.1732399999999998    0.0000000000000000
   0.0000000000000000    1.1277740000000001   12.1645610000000008
Cs As H Se O
8 2 10 6 32
direct
   0.1710340000000000    0.2985400000000000    0.9019300000000001 Cs
   0.6710340000000000    0.7014600000000001    0.0980700000000000 Cs
   0.4478120000000000    0.2042060000000000    0.0870080000000000 Cs
   0.9478120000000000    0.7957940000000000    0.9129919999999990 Cs
   0.4226400000000000    0.2667910000000000    0.6415330000000000 Cs
   0.9226400000000001    0.7332090000000000    0.3584670000000000 Cs
   0.6903840000000000    0.7748130000000000    0.6456980000000000 Cs
   0.1903840000000000    0.2251870000000000    0.3543020000000000 Cs
   0.4428519999999990    0.7609389999999990    0.3652390000000000 As
   0.9428519999999990    0.2390610000000000    0.6347610000000000 As
   0.2715490000000000    0.8564309999999991    0.8168339999999999 H
   0.7715489999999990    0.1435690000000000    0.1831660000000000 H
   0.3494700000000000    0.6370300000000001    0.1833400000000000 H
   0.8494700000000001    0.3629700000000000    0.8166600000000001 H
   0.5978100000000001    0.6407550000000000    0.4145280000000000 H
   0.0978100000000000    0.3592450000000000    0.5854720000000000 H
   0.4856370000000000    0.1145660000000000    0.3881050000000000 H
   0.9856370000000000    0.8854339999999991    0.6118950000000000 H
   0.3101170000000000    0.7290880000000000    0.4842869999999990 H
   0.8101170000000000    0.2709120000000000    0.5157130000000000 H
   0.1707590000000000    0.7313040000000000    0.6296379999999990 Se
   0.6707590000000000    0.2686960000000000    0.3703619999999990 Se
   0.4255520000000000    0.7223750000000000    0.8539570000000000 Se
   0.9255519999999990    0.2776250000000000    0.1460430000000000 Se
   0.1953290000000000    0.7747290000000000    0.1414689999999990 Se
   0.6953290000000000    0.2252710000000000    0.8585309999999990 Se
   0.2593940000000000    0.8686180000000000    0.5605860000000000 O
   0.7593940000000000    0.1313820000000000    0.4394139999999990 O
   0.0666210000000000    0.7841440000000000    0.5636450000000000 O
   0.5666209999999990    0.2158560000000000    0.4363550000000000 O
   0.1665029999999990    0.8029970000000000    0.7585270000000000 O
   0.6665030000000000    0.1970029999999990    0.2414730000000000 O
   0.1905250000000000    0.4615320000000000    0.6298170000000000 O
   0.6905249999999991    0.5384679999999999    0.3701830000000000 O
   0.3764400000000001    0.4765709999999990    0.8665119999999999 O
   0.8764400000000001    0.5234289999999990    0.1334880000000000 O
   0.4779400000000000    0.7782580000000000    0.7331400000000000 O
   0.9779400000000000    0.2217420000000000    0.2668600000000000 O
   0.4909679999999990    0.7775550000000000    0.9604000000000000 O
   0.9909680000000000    0.2224449999999990    0.0396000000000000 O
   0.3288160000000000    0.9143589999999990    0.8568760000000000 O
   0.8288160000000000    0.0856410000000000    0.1431240000000000 O
   0.2488840000000000    0.0161110000000000    0.1378560000000000 O
   0.7488840000000000    0.9838889999999991    0.8621439999999990 O
   0.1302240000000000    0.7211460000000000    0.2537570000000000 O
   0.6302240000000000    0.2788540000000000    0.7462430000000000 O
   0.1401970000000000    0.7297830000000000    0.0264470000000000 O
   0.6401970000000000    0.2702170000000000    0.9735530000000000 O
   0.2894350000000000    0.5749820000000000    0.1497870000000000 O
   0.7894350000000000    0.4250180000000000    0.8502130000000000 O
   0.4557360000000000    0.6778609999999990    0.2389760000000000 O
   0.9557359999999990    0.3221390000000000    0.7610239999999990 O
   0.5413640000000000    0.7119800000000001    0.4528120000000000 O
   0.0413640000000000    0.2880200000000000    0.5471880000000000 O
   0.4213349999999990    0.0407309999999990    0.3646390000000000 O
   0.9213349999999991    0.9592689999999990    0.6353610000000000 O
   0.3439149999999990    0.6323559999999990    0.4298389999999990 O
   0.8439150000000000    0.3676439999999990    0.5701610000000000 O
