Rb8 Sb16 Au24 S40
1.0
   7.1582039999999996    0.0000000000000000    0.0000000000000000
   0.0000000000000000   12.7968270000000004    0.0000000000000000
   0.0000000000000000    0.0000000000000000   26.6449819999999988
Rb Sb Au S
8 16 24 40
direct
   0.0000000000000000    0.3222100000000001    0.9834680000000000 Rb
   0.0000000000000000    0.6777900000000000    0.0165319999999990 Rb
   0.5000000000000000    0.8385830000000000    0.9307190000000000 Rb
   0.5000000000000000    0.8222100000000001    0.5165320000000000 Rb
   0.0000000000000000    0.3385829999999990    0.5692809999999990 Rb
   0.0000000000000000    0.6614169999999990    0.4307189999999990 Rb
   0.5000000000000000    0.1614170000000000    0.0692810000000000 Rb
   0.5000000000000000    0.1777900000000000    0.4834679999999991 Rb
   0.0000000000000000    0.9671639999999990    0.6253770000000000 Sb
   0.5000000000000000    0.9329520000000000    0.3458779999999990 Sb
   0.0000000000000000    0.9524070000000000    0.1163439999999990 Sb
   0.0000000000000000    0.4329520000000000    0.1541219999999990 Sb
   0.0000000000000000    0.0328360000000000    0.3746230000000000 Sb
   0.0000000000000000    0.0475929999999990    0.8836560000000000 Sb
   0.0000000000000000    0.5670480000000000    0.8458779999999990 Sb
   0.5000000000000000    0.1820419999999990    0.8955440000000000 Sb
   0.5000000000000000    0.8179580000000000    0.1044560000000000 Sb
   0.5000000000000000    0.0670480000000000    0.6541220000000000 Sb
   0.5000000000000000    0.4524070000000000    0.3836560000000000 Sb
   0.5000000000000000    0.5475930000000000    0.6163440000000000 Sb
   0.5000000000000000    0.5328360000000000    0.1253770000000000 Sb
   0.0000000000000000    0.6820419999999990    0.6044560000000000 Sb
   0.0000000000000000    0.3179579999999990    0.3955440000000000 Sb
   0.5000000000000000    0.4671639999999990    0.8746229999999990 Sb
   0.0000000000000000    0.1936290000000000    0.1808840000000000 Au
   0.7508610000000000    0.0141850000000000    0.7666179999999990 Au
   0.2534619999999990    0.1856980000000000    0.3061970000000000 Au
   0.2465379999999990    0.6856979999999990    0.1938030000000000 Au
   0.2491390000000000    0.0141850000000000    0.7666179999999990 Au
   0.7508610000000000    0.9858150000000000    0.2333819999999990 Au
   0.5000000000000000    0.6936289999999991    0.3191160000000000 Au
   0.2491390000000000    0.9858150000000000    0.2333819999999990 Au
   0.7465379999999990    0.1856980000000000    0.3061970000000000 Au
   0.5000000000000000    0.2313700000000000    0.2127689999999990 Au
   0.2534619999999990    0.8143020000000000    0.6938029999999999 Au
   0.5000000000000000    0.7686300000000000    0.7872310000000000 Au
   0.2508610000000000    0.5141850000000000    0.7333820000000000 Au
   0.2508610000000000    0.4858150000000000    0.2666179999999990 Au
   0.0000000000000000    0.2686300000000000    0.7127690000000000 Au
   0.5000000000000000    0.3063710000000000    0.6808839999999990 Au
   0.0000000000000000    0.7313700000000001    0.2872310000000000 Au
   0.2465379999999990    0.3143019999999990    0.8061969999999991 Au
   0.7465379999999990    0.8143020000000000    0.6938029999999999 Au
   0.0000000000000000    0.8063709999999999    0.8191160000000000 Au
   0.7491390000000000    0.4858150000000000    0.2666179999999990 Au
   0.7534620000000000    0.6856979999999990    0.1938030000000000 Au
   0.7491390000000000    0.5141850000000000    0.7333820000000000 Au
   0.7534620000000000    0.3143019999999990    0.8061969999999991 Au
   0.2504740000000000    0.0855650000000000    0.5891839999999990 S
   0.0000000000000000    0.9135780000000000    0.2787750000000000 S
   0.0000000000000000    0.1393650000000000    0.0972130000000000 S
   0.2498530000000000    0.5937900000000000    0.5534770000000000 S
   0.7498530000000000    0.9062100000000001    0.0534770000000000 S
   0.0000000000000000    0.0864220000000000    0.7212250000000000 S
   0.5000000000000000    0.7587360000000000    0.2371650000000000 S
   0.5000000000000000    0.5864220000000000    0.7787750000000000 S
   0.7504740000000000    0.4144350000000000    0.0891840000000000 S
   0.2495260000000000    0.5855650000000000    0.9108160000000000 S
   0.5000000000000000    0.6619830000000000    0.0495850000000000 S
   0.5000000000000000    0.3606350000000000    0.5972130000000000 S
   0.0000000000000000    0.2587359999999990    0.2628350000000000 S
   0.0000000000000000    0.7412639999999990    0.7371650000000000 S
   0.0000000000000000    0.8606349999999990    0.9027870000000000 S
   0.7495259999999990    0.9144350000000000    0.4108159999999990 S
   0.2495260000000000    0.4144350000000000    0.0891840000000000 S
   0.2498530000000000    0.4062100000000000    0.4465230000000000 S
   0.5000000000000000    0.1349600000000000    0.3582050000000000 S
   0.7495259999999990    0.0855650000000000    0.5891839999999990 S
   0.2501470000000000    0.9062100000000001    0.0534770000000000 S
   0.5000000000000000    0.9447110000000000    0.8123870000000000 S
   0.7501470000000000    0.4062100000000000    0.4465230000000000 S
   0.0000000000000000    0.1619830000000000    0.4504149999999990 S
   0.7504740000000000    0.5855650000000000    0.9108160000000000 S
   0.5000000000000000    0.8650400000000000    0.6417950000000000 S
   0.0000000000000000    0.6349600000000001    0.1417950000000000 S
   0.7501470000000000    0.5937900000000000    0.5534770000000000 S
   0.2501470000000000    0.0937900000000000    0.9465230000000000 S
   0.5000000000000000    0.0552890000000000    0.1876130000000000 S
   0.7498530000000000    0.0937900000000000    0.9465230000000000 S
   0.5000000000000000    0.2412639999999990    0.7628349999999990 S
   0.5000000000000000    0.4135780000000000    0.2212249999999990 S
   0.0000000000000000    0.8380170000000000    0.5495850000000000 S
   0.2504740000000000    0.9144350000000000    0.4108159999999990 S
   0.0000000000000000    0.4447109999999990    0.6876129999999990 S
   0.5000000000000000    0.6393650000000000    0.4027870000000000 S
   0.0000000000000000    0.3650400000000000    0.8582050000000000 S
   0.5000000000000000    0.3380170000000000    0.9504150000000000 S
   0.0000000000000000    0.5552889999999990    0.3123869999999990 S
