Rb12 Sb4 S12
1.0
   9.8931668399999992    0.0000000000000000    0.0000000000000000
  -0.0000000000000000    9.8931668399999992    0.0000000000000000
  -0.0000000000000000    0.0000000000000000    9.8931668399999992
Rb Sb S
12 4 12
direct
   0.4410061400000000    0.9410061400000000    0.5589938600000001 Rb
   0.9410061400000000    0.5589938600000001    0.4410061400000000 Rb
   0.5589938600000001    0.4410061400000000    0.9410061400000000 Rb
   0.0589938600000000    0.0589938600000000    0.0589938600000000 Rb
   0.9368910400000000    0.4368910400000000    0.0631089600000000 Rb
   0.4368910400000000    0.0631089600000000    0.9368910400000000 Rb
   0.0631089600000000    0.9368910400000000    0.4368910400000000 Rb
   0.5631089600000000    0.5631089600000000    0.5631089600000000 Rb
   0.6781794400000000    0.1781794400000000    0.3218205600000000 Rb
   0.1781794400000000    0.3218205600000000    0.6781794400000000 Rb
   0.3218205600000000    0.6781794400000000    0.1781794400000000 Rb
   0.8218205600000000    0.8218205600000000    0.8218205600000000 Rb
   0.2232437100000000    0.7232437100000000    0.7767562900000000 Sb
   0.7232437100000000    0.7767562900000000    0.2232437100000000 Sb
   0.7767562900000000    0.2232437100000000    0.7232437100000000 Sb
   0.2767562900000000    0.2767562900000000    0.2767562900000000 Sb
   0.1547322200000000    0.9590705800000000    0.7556806800000000 S
   0.2443193200000000    0.6547322200000000    0.5409294200000000 S
   0.4590705800000000    0.7443193200000000    0.8452677800000000 S
   0.6547322200000000    0.5409294200000000    0.2443193200000000 S
   0.7443193200000000    0.8452677800000000    0.4590705800000000 S
   0.9590705800000000    0.7556806800000000    0.1547322200000000 S
   0.8452677800000000    0.4590705800000000    0.7443193200000000 S
   0.7556806800000000    0.1547322200000000    0.9590705800000000 S
   0.5409294200000000    0.2443193200000000    0.6547322200000000 S
   0.3452677800000000    0.0409294200000000    0.2556806800000000 S
   0.2556806800000000    0.3452677800000000    0.0409294200000000 S
   0.0409294200000000    0.2556806800000000    0.3452677800000000 S
