Cs4 Bi16 Te24
1.0
   4.4311127900000002    0.0042661800000000    0.0037682700000000
  -0.0041598700000000   14.7482778700000008    0.0435490100000000
  -2.1804168000000002   -5.0561360300000002   25.6166260399999999
Cs Bi Te
4 16 24
direct
   0.6873812500000001    0.5128710400000001    0.3741817000000000 Cs
   0.0577536800000000    0.5110352000000000    0.1093958100000000 Cs
   0.9470993200000000    0.4880673400000000    0.8915120000000000 Cs
   0.3140031300000000    0.4864931400000000    0.6266107500000000 Cs
   0.1613031300000000    0.0899777000000000    0.3270301200000000 Bi
   0.7116682500000000    0.9116010100000000    0.4258208700000000 Bi
   0.4125628700000000    0.0594861800000000    0.8216095400000000 Bi
   0.9604604100000000    0.8621216800000000    0.9196664100000000 Bi
   0.8681095900000000    0.2458293400000000    0.7278579500000000 Bi
   0.5905182800000001    0.9399096900000000    0.1793339400000000 Bi
   0.0170636700000000    0.7937620999999990    0.0309387200000000 Bi
   0.8396764600000001    0.9090840500000000    0.6735783900000000 Bi
   0.1328684900000000    0.7529889200000001    0.2729870200000000 Bi
   0.2617961800000000    0.7446656700000001    0.5296117200000000 Bi
   0.0445584400000000    0.1369404200000000    0.0812588900000000 Bi
   0.9869852400000000    0.2052824100000000    0.9699934000000000 Bi
   0.7383135900000000    0.2548565600000000    0.4710911000000000 Bi
   0.6186472400000000    0.2748970900000000    0.2304209700000000 Bi
   0.3847352900000000    0.7243273900000000    0.7705479800000000 Bi
   0.2871156500000000    0.0874201700000000    0.5747912800000000 Bi
   0.3253749700000000    0.7618330200000000    0.6488747900000000 Te
   0.5395768200000000    0.9651656800000000    0.0678227600000000 Te
   0.2404914900000000    0.3937332600000000    0.4792040999999990 Te
   0.8970743100000000    0.8993428400000000    0.7897164200000000 Te
   0.0809476300000000    0.7909295000000000    0.1621253800000000 Te
   0.8767738900000001    0.5846688500000000    0.7529803100000000 Te
   0.1993666200000000    0.7607621700000000    0.4057590800000000 Te
   0.6756314800000001    0.2373439000000000    0.3517070100000000 Te
   0.7592799700000000    0.6060235200000000    0.5212414600000000 Te
   0.1051377200000000    0.0999985100000000    0.2109473300000000 Te
   0.5641832200000000    0.2775364600000000    0.1164214000000000 Te
   0.3471850700000000    0.0702312300000000    0.6918318100000000 Te
   0.9212946300000000    0.2087403500000000    0.8387470200000000 Te
   0.4414275500000000    0.7213198700000000    0.8846000700000001 Te
   0.3792811100000000    0.3834833700000000    0.7538423999999990 Te
   0.7759164200000001    0.9246260600000000    0.5502174700000000 Te
   0.6540987100000000    0.9284564300000000    0.3088513700000000 Te
   0.6215898500000000    0.6152943500000000    0.2467751900000000 Te
   0.4669701800000000    0.0340900800000000    0.9331089300000001 Te
   0.5113961100000000    0.6509697900000000    0.0164471100000000 Te
   0.1260128600000000    0.4144418400000000    0.2478249600000000 Te
   0.2223007400000000    0.0744361600000000    0.4503173400000000 Te
   0.7991396900000001    0.2382512900000000    0.5948051999999990 Te
   0.4936538000000000    0.3481333700000000    0.9842525400000001 Te
