Tl12 Ag12 Sb8 S24
1.0
  12.1419300000000003    0.0000000000000000    0.0000000000000000
   0.0000000000000000   11.5377080000000003    0.0000000000000000
   0.0000000000000000    6.0828980000000001   10.6279120000000002
Tl Ag Sb S
12 12 8 24
direct
   0.1152200000000000    0.2150359999999990    0.8881140000000000 Tl
   0.2464859999999990    0.8381170000000000    0.7291029999999999 Tl
   0.5103430000000000    0.8057519999999990    0.9653790000000000 Tl
   0.0103430000000000    0.1942480000000000    0.5346210000000000 Tl
   0.8847800000000001    0.7849640000000000    0.1118860000000000 Tl
   0.3847800000000000    0.2150359999999990    0.3881139999999990 Tl
   0.9896570000000000    0.8057519999999990    0.4653790000000000 Tl
   0.6152200000000001    0.7849640000000000    0.6118859999999990 Tl
   0.4896569999999991    0.1942480000000000    0.0346210000000000 Tl
   0.7464860000000000    0.1618830000000000    0.7708969999999991 Tl
   0.2535139999999990    0.8381170000000000    0.2291030000000000 Tl
   0.7535140000000000    0.1618830000000000    0.2708970000000000 Tl
   0.6534270000000000    0.1100920000000000    0.5709679999999990 Ag
   0.6348450000000000    0.5267820000000000    0.9254040000000000 Ag
   0.1348450000000000    0.4732179999999990    0.5745960000000000 Ag
   0.8651550000000000    0.5267820000000000    0.4254040000000000 Ag
   0.8748800000000001    0.5268360000000000    0.0507860000000000 Ag
   0.6251200000000000    0.5268360000000000    0.5507860000000000 Ag
   0.1251200000000000    0.4731640000000000    0.9492140000000000 Ag
   0.3748800000000000    0.4731640000000000    0.4492140000000000 Ag
   0.3465729999999990    0.8899079999999990    0.4290319999999990 Ag
   0.3651550000000000    0.4732179999999990    0.0745960000000000 Ag
   0.8465729999999990    0.1100920000000000    0.0709680000000000 Ag
   0.1534269999999990    0.8899079999999990    0.9290320000000000 Ag
   0.4096610000000000    0.1692440000000000    0.7405300000000000 Sb
   0.0903390000000000    0.1692440000000000    0.2405300000000000 Sb
   0.8533529999999990    0.4979610000000000    0.7552909999999990 Sb
   0.1466470000000000    0.5020390000000000    0.2447089999999990 Sb
   0.5903389999999999    0.8307559999999991    0.2594700000000000 Sb
   0.9096609999999991    0.8307559999999991    0.7594700000000001 Sb
   0.6466470000000000    0.4979610000000000    0.2552910000000000 Sb
   0.3533530000000000    0.5020390000000000    0.7447090000000000 Sb
   0.2488379999999990    0.2708300000000000    0.0990320000000000 S
   0.1631260000000000    0.5839489999999991    0.7119489999999991 S
   0.5317689999999990    0.9944839999999990    0.3218570000000000 S
   0.4682309999999990    0.0055160000000000    0.6781429999999991 S
   0.0317690000000000    0.0055160000000000    0.1781430000000000 S
   0.4178960000000000    0.6451260000000000    0.5259619999999990 S
   0.5742000000000000    0.3711220000000000    0.1571020000000000 S
   0.9178959999999990    0.3548739999999990    0.9740380000000000 S
   0.8368740000000000    0.4160510000000000    0.2880510000000000 S
   0.3212170000000000    0.0041329999999990    0.9433410000000000 S
   0.0821040000000000    0.6451260000000000    0.0259620000000000 S
   0.7511620000000000    0.7291700000000001    0.9009680000000000 S
   0.5821040000000000    0.3548739999999990    0.4740379999999990 S
   0.9682310000000000    0.9944839999999990    0.8218569999999999 S
   0.2511620000000000    0.2708300000000000    0.5990320000000000 S
   0.7488380000000000    0.7291700000000001    0.4009680000000000 S
   0.0742000000000000    0.6288779999999990    0.3428980000000000 S
   0.4258000000000000    0.6288779999999990    0.8428979999999990 S
   0.6631260000000000    0.4160510000000000    0.7880509999999999 S
   0.6787829999999990    0.9958669999999999    0.0566589999999990 S
   0.3368740000000000    0.5839489999999991    0.2119490000000000 S
   0.8212170000000000    0.9958669999999999    0.5566590000000000 S
   0.9258000000000001    0.3711220000000000    0.6571020000000000 S
   0.1787830000000000    0.0041329999999990    0.4433410000000000 S
