Cs6 Sb10 S18
1.0
  12.8108240000000002    4.7001830000000000    0.0000000000000000
 -12.8108240000000002    4.7001830000000000    0.0000000000000000
   0.0000000000000000    2.7845540000000000    9.0602809999999998
Cs Sb S
6 10 18
direct
   0.4183460000000000    0.5816540000000000    0.5000000000000000 Cs
   0.5816540000000000    0.4183460000000000    0.5000000000000000 Cs
   0.0256680000000000    0.4561039999999990    0.2311049999999990 Cs
   0.4561039999999990    0.0256680000000000    0.2311049999999990 Cs
   0.9743320000000000    0.5438959999999990    0.7688950000000000 Cs
   0.5438959999999990    0.9743320000000000    0.7688950000000000 Cs
   0.4272709999999990    0.5727289999999990    0.0000000000000000 Sb
   0.5727289999999990    0.4272709999999990    0.0000000000000000 Sb
   0.9209950000000000    0.0790049999999990    0.5000000000000000 Sb
   0.0790049999999990    0.9209950000000000    0.5000000000000000 Sb
   0.0346890000000000    0.2790289999999990    0.8369620000000000 Sb
   0.2790289999999990    0.0346890000000000    0.8369620000000000 Sb
   0.9653109999999990    0.7209709999999990    0.1630380000000000 Sb
   0.7209709999999990    0.9653109999999990    0.1630380000000000 Sb
   0.8937700000000001    0.8937700000000001    0.8629580000000000 Sb
   0.1062300000000000    0.1062300000000000    0.1370420000000000 Sb
   0.1222910000000000    0.1222910000000000    0.6281460000000000 S
   0.8777090000000000    0.8777090000000000    0.3718539999999990 S
   0.8084509999999990    0.1915490000000000    0.0000000000000000 S
   0.1915490000000000    0.8084509999999990    0.0000000000000000 S
   0.2419940000000000    0.5529060000000000    0.8336530000000000 S
   0.5529060000000000    0.2419940000000000    0.8336530000000000 S
   0.7580060000000000    0.4470940000000000    0.1663470000000000 S
   0.4470940000000000    0.7580060000000000    0.1663470000000000 S
   0.9910909999999991    0.3065380000000000    0.5989400000000000 S
   0.3065380000000000    0.9910909999999991    0.5989400000000000 S
   0.0089090000000000    0.6934620000000000    0.4010600000000000 S
   0.6934620000000000    0.0089090000000000    0.4010600000000000 S
   0.3796690000000000    0.3796690000000000    0.8789070000000000 S
   0.6203310000000000    0.6203310000000000    0.1210929999999990 S
   0.7012189999999990    0.8513919999999990    0.7721110000000000 S
   0.8513919999999990    0.7012189999999990    0.7721110000000000 S
   0.2987809999999990    0.1486080000000000    0.2278889999999990 S
   0.1486080000000000    0.2987809999999990    0.2278889999999990 S
