Cu2 Bi6 Pb2 S12
1.0
   4.0419219999999996    0.0000000000000000    0.0000000000000000
   0.0000000000000000   11.1592350000000007    0.0000000000000000
   0.0000000000000000    0.0000000000000000   11.8075130000000001
Cu Bi Pb S
2 6 2 12
direct
   0.0000000000000000    0.4608509999999990    0.6392420000000000 Cu
   0.0000000000000000    0.5391490000000000    0.1392420000000000 Cu
   0.0000000000000000    0.9218679999999990    0.4272120000000000 Bi
   0.0000000000000000    0.0781320000000000    0.9272119999999990 Bi
   0.5000000000000000    0.5649990000000000    0.3936739999999990 Bi
   0.5000000000000000    0.4350009999999990    0.8936740000000000 Bi
   0.5000000000000000    0.2129589999999990    0.5622090000000000 Bi
   0.5000000000000000    0.7870410000000000    0.0622090000000000 Bi
   0.0000000000000000    0.2531460000000000    0.2342580000000000 Pb
   0.0000000000000000    0.7468540000000000    0.7342580000000000 Pb
   0.5000000000000000    0.7986970000000000    0.5287320000000000 S
   0.5000000000000000    0.2013029999999990    0.0287319999999990 S
   0.5000000000000000    0.1071400000000000    0.3635850000000000 S
   0.5000000000000000    0.8928600000000001    0.8635849999999990 S
   0.5000000000000000    0.4486980000000000    0.1929820000000000 S
   0.5000000000000000    0.5513020000000000    0.6929820000000000 S
   0.0000000000000000    0.6890220000000000    0.2885300000000000 S
   0.0000000000000000    0.3109780000000000    0.7885300000000001 S
   0.0000000000000000    0.3780739999999990    0.4590970000000000 S
   0.0000000000000000    0.6219260000000000    0.9590970000000000 S
   0.0000000000000000    0.0558069999999990    0.6214300000000000 S
   0.0000000000000000    0.9441940000000000    0.1214300000000000 S
