K8 As2 H10 S6 O32
1.0
   9.0318970000000007    0.0000000000000000    0.0000000000000000
   4.3128330000000004    9.3676180000000002    0.0000000000000000
   4.3177240000000001    1.6238580000000000    9.9210379999999994
K As H S O
8 2 10 6 32
direct
   0.7325860000000000    0.0215910000000000    0.9892409999999990 K
   0.7677309999999991    0.9290079999999999    0.4045010000000000 K
   0.7827219999999990    0.4546070000000000    0.4956950000000000 K
   0.2172780000000000    0.5453930000000000    0.5043050000000000 K
   0.7551540000000000    0.5722849999999990    0.1008410000000000 K
   0.2674140000000000    0.9784090000000000    0.0107590000000000 K
   0.2322690000000000    0.0709920000000000    0.5954990000000000 K
   0.2448459999999990    0.4277149999999990    0.8991589999999990 K
   0.4715030000000000    0.3172979999999990    0.2205850000000000 As
   0.5284970000000000    0.6827019999999990    0.7794150000000000 As
   0.6716090000000000    0.7608459999999990    0.8685470000000000 H
   0.8097800000000001    0.0906860000000000    0.6479030000000000 H
   0.7426119999999991    0.2381059999999990    0.2452869999999990 H
   0.3224480000000000    0.6135020000000000    0.1443249999999990 H
   0.3283910000000000    0.2391539999999990    0.1314530000000000 H
   0.1902200000000000    0.9093140000000000    0.3520970000000000 H
   0.6775519999999990    0.3864980000000000    0.8556750000000000 H
   0.2573880000000000    0.7618940000000000    0.7547130000000000 H
   0.2178739999999990    0.2744590000000000    0.3622189999999990 H
   0.7821260000000000    0.7255410000000000    0.6377809999999990 H
   0.0359460000000000    0.1960230000000000    0.2705150000000000 S
   0.9640540000000000    0.8039769999999991    0.7294849999999991 S
   0.4681530000000000    0.8212039999999990    0.3164550000000000 S
   0.9563590000000000    0.3144150000000000    0.8145660000000000 S
   0.0436410000000000    0.6855850000000000    0.1854340000000000 S
   0.5318470000000000    0.1787959999999990    0.6835450000000000 S
   0.6665860000000000    0.1908689999999990    0.2376339999999990 O
   0.5565510000000000    0.7429469999999990    0.8987480000000000 O
   0.1372060000000000    0.7022020000000000    0.7371780000000000 O
   0.0506060000000000    0.5715740000000000    0.1267350000000000 O
   0.7235079999999990    0.1832310000000000    0.6159920000000000 O
   0.4285739999999990    0.3275659999999990    0.6418550000000000 O
   0.5255090000000000    0.5140650000000000    0.8175110000000000 O
   0.9291050000000000    0.7736930000000000    0.6200300000000001 O
   0.3334140000000000    0.8091309999999990    0.7623660000000000 O
   0.9275110000000000    0.8297629999999990    0.1477760000000000 O
   0.4747900000000000    0.9303570000000000    0.3728100000000000 O
   0.5714260000000000    0.6724340000000000    0.3581450000000000 O
   0.2270829999999990    0.7050000000000000    0.1183390000000000 O
   0.8305300000000001    0.7817689999999990    0.8613100000000000 O
   0.0724890000000000    0.1702370000000000    0.8522240000000000 O
   0.1694700000000000    0.2182309999999990    0.1386900000000000 O
   0.9864480000000000    0.3543320000000000    0.6676949999999990 O
   0.5252100000000001    0.0696430000000000    0.6271900000000000 O
   0.0135520000000000    0.6456680000000000    0.3323049999999990 O
   0.6880640000000000    0.7026450000000000    0.6262940000000000 O
   0.4744910000000000    0.4859349999999991    0.1824889999999990 O
   0.9493940000000000    0.4284260000000000    0.8732650000000000 O
   0.4434490000000000    0.2570530000000000    0.1012520000000000 O
   0.9599340000000000    0.9558700000000001    0.7009529999999990 O
   0.2764919999999990    0.8167690000000000    0.3840079999999990 O
   0.5000230000000000    0.1412230000000000    0.8305400000000001 O
   0.4999770000000000    0.8587770000000000    0.1694600000000000 O
   0.0708950000000000    0.2263069999999990    0.3799700000000000 O
   0.3119360000000000    0.2973550000000000    0.3737060000000000 O
   0.8627939999999999    0.2977980000000000    0.2628220000000000 O
   0.0400660000000000    0.0441300000000000    0.2990470000000000 O
   0.7729170000000000    0.2950000000000000    0.8816609999999990 O
