Te4 As2 I2 O1
1.0
   6.8990330000000002    0.0000000000000000    0.0000000000000000
   3.4383040000000000    6.1910559999999997    0.0000000000000000
   1.8862150000000000    2.4475129999999998    8.3584549999999993
Te As I O
4 2 2 1
direct
   0.8246939999999990    0.2534020000000000    0.2563400000000000 Te
   0.0770759999999990    0.7061300000000000    0.7479600000000001 Te
   0.4192600000000000    0.0892329999999990    0.7754770000000000 Te
   0.7056209999999991    0.4243820000000000    0.8085150000000000 Te
   0.3572600000000000    0.3510649999999990    0.9506429999999991 As
   0.7268900000000000    0.7026779999999990    0.9356120000000000 As
   0.7418480000000000    0.8778750000000000    0.3156319999999990 I
   0.3706780000000000    0.5559590000000000    0.2849710000000000 I
   0.9375730000000000    0.2001760000000000    0.4421489999999990 O
