Sb6 Se4 Cl2 O16
1.0
   7.2522279999999997    0.0000000000000000    0.0000000000000000
   0.0000000000000000    7.9441740000000003    0.0000000000000000
   0.0000000000000000    0.0000000000000000   10.6492260000000005
Sb Se Cl O
6 4 2 16
direct
   0.2500000000000000    0.0000000000000000    0.7500000000000000 Sb
   0.2500000000000000    0.0000000000000000    0.2500000000000000 Sb
   0.7500000000000000    0.0000000000000000    0.7500000000000000 Sb
   0.5000000000000000    0.7665839999999990    0.5000000000000000 Sb
   0.0000000000000000    0.2334159999999990    0.0000000000000000 Sb
   0.7500000000000000    0.0000000000000000    0.2500000000000000 Sb
   0.5000000000000000    0.6180600000000001    0.8083340000000000 Se
   0.0000000000000000    0.3819400000000001    0.6916660000000000 Se
   0.5000000000000000    0.6180600000000001    0.1916660000000000 Se
   0.0000000000000000    0.3819400000000001    0.3083340000000000 Se
   0.0000000000000000    0.8746940000000000    0.5000000000000000 Cl
   0.5000000000000000    0.1253060000000000    0.0000000000000000 Cl
   0.0000000000000000    0.0335209999999990    0.8589810000000000 O
   0.0000000000000000    0.4222320000000000    0.8533930000000000 O
   0.5000000000000000    0.5777679999999999    0.3533929999999990 O
   0.3093840000000000    0.7493700000000001    0.8269270000000000 O
   0.1906159999999990    0.2506300000000000    0.3269269999999990 O
   0.8093840000000000    0.2506300000000000    0.3269269999999990 O
   0.5000000000000000    0.9664790000000000    0.6410190000000000 O
   0.6906160000000000    0.7493700000000001    0.8269270000000000 O
   0.6906160000000000    0.7493700000000001    0.1730730000000000 O
   0.8093840000000000    0.2506300000000000    0.6730729999999990 O
   0.0000000000000000    0.0335209999999990    0.1410190000000000 O
   0.5000000000000000    0.9664790000000000    0.3589810000000000 O
   0.1906159999999990    0.2506300000000000    0.6730729999999990 O
   0.3093840000000000    0.7493700000000001    0.1730730000000000 O
   0.5000000000000000    0.5777679999999999    0.6466069999999990 O
   0.0000000000000000    0.4222320000000000    0.1466070000000000 O
