Sb4 S6 O24
1.0
   8.5039239999999996   -4.4504349999999997    0.0000000000000000
   8.5039239999999996    4.4504349999999997    0.0000000000000000
   6.1748380000000003    0.0000000000000000    7.3480930000000004
Sb S O
4 6 24
direct
   0.8571820000000000    0.8571820000000000    0.8571820000000000 Sb
   0.6523860000000000    0.6523860000000000    0.6523860000000000 Sb
   0.3476140000000000    0.3476140000000000    0.3476140000000000 Sb
   0.1428180000000000    0.1428180000000000    0.1428180000000000 Sb
   0.5440590000000000    0.9594809999999990    0.2489880000000000 S
   0.7510120000000000    0.4559410000000000    0.0405190000000000 S
   0.0405190000000000    0.7510120000000000    0.4559410000000000 S
   0.9594809999999990    0.2489880000000000    0.5440590000000000 S
   0.2489880000000000    0.5440590000000000    0.9594809999999990 S
   0.4559410000000000    0.0405190000000000    0.7510120000000000 S
   0.8587539999999990    0.7922020000000000    0.4680410000000000 O
   0.4680410000000000    0.8587539999999990    0.7922020000000000 O
   0.4098569999999990    0.9822400000000001    0.1978490000000000 O
   0.7328560000000000    0.8646579999999990    0.1402749999999990 O
   0.7922020000000000    0.4680410000000000    0.8587539999999990 O
   0.1353420000000000    0.8597250000000000    0.2671440000000000 O
   0.8021509999999999    0.5901430000000000    0.0177600000000000 O
   0.5059210000000000    0.8483980000000000    0.4463709999999990 O
   0.5536289999999990    0.4940790000000000    0.1516020000000000 O
   0.0177600000000000    0.8021509999999999    0.5901430000000000 O
   0.8597250000000000    0.2671440000000000    0.1353420000000000 O
   0.1516020000000000    0.5536289999999990    0.4940790000000000 O
   0.8483980000000000    0.4463709999999990    0.5059210000000000 O
   0.1402749999999990    0.7328560000000000    0.8646579999999990 O
   0.9822400000000001    0.1978490000000000    0.4098569999999990 O
   0.4463709999999990    0.5059210000000000    0.8483980000000000 O
   0.4940790000000000    0.1516020000000000    0.5536289999999990 O
   0.1978490000000000    0.4098569999999990    0.9822400000000001 O
   0.8646579999999990    0.1402749999999990    0.7328560000000000 O
   0.2077979999999990    0.5319590000000000    0.1412459999999990 O
   0.2671440000000000    0.1353420000000000    0.8597250000000000 O
   0.5901430000000000    0.0177600000000000    0.8021509999999999 O
   0.5319590000000000    0.1412459999999990    0.2077979999999990 O
   0.1412459999999990    0.2077979999999990    0.5319590000000000 O
