In10 Bi6 S24
1.0
   1.9606150000000000   16.7585920000000002    0.0000000000000000
  -1.9606150000000000   16.7585920000000002    0.0000000000000000
   0.0000000000000000    0.1466690000000000   14.5652369999999998
In Bi S
10 6 24
direct
   0.9961279999999991    0.0025210000000000    0.0029530000000000 In
   0.9979110000000000    0.0034159999999990    0.5029690000000000 In
   0.7859830000000000    0.7777390000000000    0.4169700000000000 In
   0.2057380000000000    0.2260349999999990    0.5826760000000000 In
   0.5965950000000000    0.5991750000000000    0.5001730000000000 In
   0.4038390000000000    0.3998470000000000    0.4932959999999990 In
   0.3139220000000000    0.3390559999999990    0.2191759999999990 In
   0.6686409999999990    0.6756170000000000    0.7817449999999990 In
   0.0588430000000000    0.0843350000000000    0.2782310000000000 In
   0.9344400000000000    0.9249680000000000    0.7208549999999990 In
   0.8550200000000001    0.8764890000000000    0.9844670000000000 Bi
   0.1341090000000000    0.1364490000000000    0.0179980000000000 Bi
   0.6778259999999990    0.6806380000000000    0.2646429999999990 Bi
   0.3181680000000000    0.3234640000000000    0.7351800000000001 Bi
   0.4568529999999990    0.4389539999999990    0.2081950000000000 Bi
   0.5422290000000000    0.5615920000000000    0.7895360000000000 Bi
   0.9991100000000001    0.0122379999999990    0.1787890000000000 S
   0.9931209999999990    0.9919880000000000    0.8178200000000001 S
   0.9293200000000000    0.9464469999999990    0.4039589999999990 S
   0.0662990000000000    0.0563370000000000    0.5960280000000000 S
   0.8730080000000000    0.8977609999999990    0.1802060000000000 S
   0.1269710000000000    0.1018910000000000    0.8197390000000000 S
   0.7660480000000000    0.7903420000000000    0.2398800000000000 S
   0.2346019999999990    0.2100439999999990    0.7616740000000000 S
   0.5981420000000000    0.6122339999999999    0.1899200000000000 S
   0.3935730000000000    0.3960320000000000    0.8095209999999990 S
   0.5399229999999990    0.5298240000000000    0.3967190000000000 S
   0.4695120000000000    0.4593689999999990    0.6042000000000001 S
   0.4345070000000000    0.4582370000000000    0.0265720000000000 S
   0.5657679999999990    0.5408830000000000    0.9735070000000000 S
   0.3355910000000000    0.3433440000000000    0.3980019999999990 S
   0.6568419999999990    0.6691990000000000    0.6000600000000000 S
   0.2018190000000000    0.1880690000000000    0.1450120000000000 S
   0.8017909999999990    0.8056050000000000    0.8497209999999999 S
   0.1293109999999990    0.1266320000000000    0.3973980000000000 S
   0.8675609999999990    0.8794400000000001    0.6074609999999990 S
   0.2198870000000000    0.2365360000000000    0.4113860000000000 S
   0.7601640000000000    0.7846800000000000    0.5910620000000000 S
   0.3097709999999990    0.3260500000000000    0.0391860000000000 S
   0.6739490000000000    0.6896500000000001    0.9604260000000000 S
