K6 Sb2 Se8
1.0
   8.0578318600000003   -0.0880603100000000   -0.2165166800000000
  -0.2200344100000000    8.0553084199999994   -0.2165166700000000
  -0.0866302500000000   -0.0880603100000000    8.0602744099999999
K Sb Se
6 2 8
direct
   0.4553202100000000    0.5251923500000000    0.0006469000000000 K
   0.0006469000000000    0.4553202100000000    0.5251923500000000 K
   0.5251923500000000    0.0006469000000000    0.4553202100000000 K
   0.0251923500000000    0.9553202100000000    0.5006469000000000 K
   0.5006469000000000    0.0251923500000000    0.9553202100000000 K
   0.9553202100000000    0.5006469000000000    0.0251923500000000 K
   0.0020061700000000    0.0020061700000000    0.0020061700000000 Sb
   0.5020061700000000    0.5020061700000000    0.5020061700000000 Sb
   0.1999690800000000    0.8284866100000000    0.1601794900000000 Se
   0.3167002000000000    0.3167002000000000    0.3167002000000000 Se
   0.3284866100000000    0.6999690800000000    0.6601794900000000 Se
   0.1601794900000000    0.1999690800000000    0.8284866100000000 Se
   0.8284866100000000    0.1601794900000000    0.1999690800000000 Se
   0.6999690800000000    0.6601794900000000    0.3284866100000000 Se
   0.6601794900000000    0.3284866100000000    0.6999690800000000 Se
   0.8167002000000000    0.8167002000000000    0.8167002000000000 Se
