K12 As4 S12
1.0
   9.4031482299999993   -0.0000000000000000    0.0000000000000000
  -0.0000000000000000    9.4031482299999993   -0.0000000000000000
   0.0000000000000000    0.0000000000000000    9.4031482299999993
K As S
12 4 12
direct
   0.0596269400000000    0.5596269400000000    0.9403730600000000 K
   0.5596269400000000    0.9403730600000000    0.0596269400000000 K
   0.9403730600000000    0.0596269400000000    0.5596269400000000 K
   0.4403730600000000    0.4403730600000000    0.4403730600000000 K
   0.5662374000000000    0.0662374000000000    0.4337626000000000 K
   0.0662374000000000    0.4337626000000000    0.5662374000000000 K
   0.4337626000000000    0.5662374000000000    0.0662374000000000 K
   0.9337626000000000    0.9337626000000000    0.9337626000000000 K
   0.8262557300000000    0.3262557300000000    0.1737442700000000 K
   0.3262557300000000    0.1737442700000000    0.8262557300000000 K
   0.1737442700000000    0.8262557300000000    0.3262557300000000 K
   0.6737442700000000    0.6737442700000000    0.6737442700000000 K
   0.2724850000000000    0.7724850000000000    0.7275149999999990 As
   0.7724850000000000    0.7275149999999990    0.2724850000000000 As
   0.7275149999999990    0.2724850000000000    0.7724850000000000 As
   0.2275150000000000    0.2275150000000000    0.2275150000000000 As
   0.2543061900000000    0.8451202999999990    0.9564789500000000 S
   0.0435210500000000    0.7543061900000000    0.6548797000000000 S
   0.3451203000000000    0.5435210500000001    0.7456938100000000 S
   0.7543061900000000    0.6548797000000000    0.0435210500000000 S
   0.5435210500000001    0.7456938100000000    0.3451203000000000 S
   0.8451202999999990    0.9564789500000000    0.2543061900000000 S
   0.7456938100000000    0.3451203000000000    0.5435210500000001 S
   0.9564789500000000    0.2543061900000000    0.8451202999999990 S
   0.6548797000000000    0.0435210500000000    0.7543061900000000 S
   0.2456938100000000    0.1548796999999990    0.4564789500000000 S
   0.4564789500000000    0.2456938100000000    0.1548796999999990 S
   0.1548796999999990    0.4564789500000000    0.2456938100000000 S
