Sb4 H6 C6 S2 Cl12 O10 F6
1.0
   7.0949450000000001    0.0000000000000000    0.0000000000000000
  -2.6398960000000002    9.6243859999999994    0.0000000000000000
  -0.0111290000000000   -0.0999279999999990   14.4324359999999992
Sb H C S Cl O F
4 6 6 2 12 10 6
direct
   0.6575960000000000    0.2728510000000000    0.8631160000000000 Sb
   0.3413529999999990    0.7269220000000000    0.3632510000000000 Sb
   0.3424040000000000    0.7271489999999990    0.1368840000000000 Sb
   0.6586470000000000    0.2730780000000000    0.6367490000000000 Sb
   0.3017710000000000    0.5710050000000000    0.7514419999999991 H
   0.6982290000000000    0.4289949999999990    0.2485580000000000 H
   0.0722179999999990    0.5850259999999990    0.6934669999999999 H
   0.9277820000000000    0.4149739999999990    0.3065330000000000 H
   0.8580960000000000    0.6647500000000001    0.1957850000000000 H
   0.1419040000000000    0.3352500000000000    0.8042150000000000 H
   0.9153040000000000    0.9212500000000001    0.7499089999999990 C
   0.0846960000000000    0.0787500000000000    0.2500910000000000 C
   0.1482720000000000    0.5248510000000000    0.7349230000000000 C
   0.8517279999999990    0.4751490000000000    0.2650770000000000 C
   0.0643100000000000    0.3972989999999990    0.7650840000000000 C
   0.9356900000000000    0.6027009999999990    0.2349159999999990 C
   0.6784680000000000    0.9734419999999990    0.7496320000000000 S
   0.3215320000000000    0.0265580000000000    0.2503680000000000 S
   0.6430950000000000    0.5027500000000000    0.8847159999999999 Cl
   0.3562650000000000    0.4975560000000000    0.3845349999999990 Cl
   0.3569050000000000    0.4972500000000000    0.1152840000000000 Cl
   0.6437349999999999    0.5024440000000000    0.6154649999999990 Cl
   0.3961619999999990    0.1675859999999990    0.9587180000000000 Cl
   0.6024700000000001    0.8332370000000000    0.4595169999999990 Cl
   0.6038380000000000    0.8324140000000000    0.0412820000000000 Cl
   0.3975300000000000    0.1667630000000000    0.5404829999999990 Cl
   0.9072580000000000    0.2832590000000000    0.9712729999999991 Cl
   0.0890789999999990    0.7170280000000000    0.4693119999999991 Cl
   0.0927419999999990    0.7167410000000000    0.0287270000000000 Cl
   0.9109210000000000    0.2829720000000000    0.5306879999999990 Cl
   0.4956109999999990    0.2365719999999990    0.7493810000000000 O
   0.5043890000000000    0.7634280000000000    0.2506190000000000 O
   0.8671000000000001    0.3294769999999990    0.7521519999999990 O
   0.1329000000000000    0.6705230000000000    0.2478479999999990 O
   0.6956450000000000    0.0597740000000000    0.8358749999999990 O
   0.3038900000000000    0.9411090000000000    0.3361449999999990 O
   0.3043550000000000    0.9402260000000000    0.1641250000000000 O
   0.6961100000000000    0.0588910000000000    0.6638550000000000 O
   0.5241340000000000    0.8473050000000000    0.7495710000000000 O
   0.4758659999999990    0.1526950000000000    0.2504290000000000 O
   0.9216960000000000    0.8451100000000000    0.8259620000000000 F
   0.0775690000000000    0.1558930000000000    0.3264330000000000 F
   0.0783040000000000    0.1548900000000000    0.1740380000000000 F
   0.9224310000000000    0.8441069999999991    0.6735669999999990 F
   0.0685580000000000    0.0344040000000000    0.7501620000000000 F
   0.9314420000000000    0.9655960000000000    0.2498379999999990 F
