Cs12 Sb4 Se16
1.0
  10.3116598800000006    0.0000000000000000    0.0000000000000000
   0.0000000000000000   10.6175337299999999    0.0000000000000000
   0.0000000000000000    0.0000000000000000   12.0993963999999998
Cs Sb Se
12 4 16
direct
   0.0529592700000000    0.1977904800000000    0.9582159900000000 Cs
   0.6472696999999999    0.0856727600000000    0.2500000000000000 Cs
   0.3527303000000000    0.9143272400000000    0.7500000000000000 Cs
   0.8527302999999991    0.5856727600000000    0.7500000000000000 Cs
   0.1472697000000000    0.4143272400000000    0.2500000000000000 Cs
   0.5529592700000000    0.3022095200000000    0.5417840100000000 Cs
   0.4470407300000000    0.6977904800000000    0.0417840100000000 Cs
   0.9470407300000000    0.8022095200000000    0.4582159900000000 Cs
   0.9470407300000000    0.8022095200000000    0.0417840100000000 Cs
   0.4470407300000000    0.6977904800000000    0.4582159900000000 Cs
   0.5529592700000000    0.3022095200000000    0.9582159900000000 Cs
   0.0529592700000000    0.1977904800000000    0.5417840100000000 Cs
   0.7713786100000000    0.0228957999999990    0.7500000000000000 Sb
   0.7286213900000000    0.5228958000000000    0.2500000000000000 Sb
   0.2713786100000000    0.4771042000000000    0.7500000000000000 Sb
   0.2286213900000000    0.9771042000000000    0.2500000000000000 Sb
   0.6508613500000000    0.9654403500000001    0.9207147000000000 Se
   0.1508613500000000    0.5345596500000001    0.5792853000000000 Se
   0.8491386500000000    0.4654403500000000    0.0792853000000000 Se
   0.3491386500000000    0.0345596500000000    0.4207147000000000 Se
   0.3491386500000000    0.0345596500000000    0.0792853000000000 Se
   0.8491386500000000    0.4654403500000000    0.4207147000000000 Se
   0.1508613500000000    0.5345596500000001    0.9207147000000000 Se
   0.6508613500000000    0.9654403500000001    0.5792853000000000 Se
   0.0108983300000000    0.0812823400000000    0.2500000000000000 Se
   0.8050396000000000    0.2550226500000000    0.7500000000000000 Se
   0.4891016700000000    0.5812823400000000    0.7500000000000000 Se
   0.9891016700000000    0.9187176600000000    0.7500000000000000 Se
   0.1949603999999990    0.7449773500000000    0.2500000000000000 Se
   0.6949603999999990    0.7550226500000000    0.2500000000000000 Se
   0.3050395999999990    0.2449773500000000    0.7500000000000000 Se
   0.5108983300000000    0.4187176600000000    0.2500000000000000 Se
