Sb8 Te12 H8 C4 N8 Cl72
1.0
  13.2214060000000000    0.0000000000000000    0.0000000000000000
   0.0000000000000000   16.0016999999999996    0.0000000000000000
   0.0000000000000000    5.1293139999999999   15.4269370000000006
Sb Te H C N Cl
8 12 8 4 8 72
direct
   0.4213119999999990    0.9100579999999990    0.3629590000000000 Sb
   0.9213119999999990    0.0899420000000000    0.1370410000000000 Sb
   0.5786880000000000    0.0899420000000000    0.6370410000000000 Sb
   0.0786880000000000    0.9100579999999990    0.8629589999999990 Sb
   0.7120040000000000    0.5752570000000000    0.4263940000000000 Sb
   0.2120040000000000    0.4247430000000000    0.0736059999999990 Sb
   0.2879960000000000    0.4247430000000000    0.5736059999999999 Sb
   0.7879959999999990    0.5752570000000000    0.9263939999999991 Sb
   0.5960139999999990    0.6971860000000000    0.1071960000000000 Te
   0.0960140000000000    0.3028139999999990    0.3928040000000000 Te
   0.4039859999999990    0.3028139999999990    0.8928039999999990 Te
   0.9039860000000000    0.6971860000000000    0.6071960000000000 Te
   0.4077170000000000    0.7443550000000000    0.2495959999999990 Te
   0.9077170000000000    0.2556450000000000    0.2504040000000000 Te
   0.5922830000000000    0.2556450000000000    0.7504040000000000 Te
   0.0922829999999990    0.7443550000000000    0.7495959999999990 Te
   0.6107790000000000    0.8636959999999990    0.2190560000000000 Te
   0.1107789999999990    0.1363039999999990    0.2809439999999990 Te
   0.3892210000000000    0.1363039999999990    0.7809440000000000 Te
   0.8892209999999990    0.8636959999999990    0.7190559999999990 Te
   0.0775349999999990    0.6764950000000000    0.1609960000000000 H
   0.5775350000000000    0.3235050000000000    0.3390039999999990 H
   0.9224650000000000    0.3235050000000000    0.8390040000000000 H
   0.4224650000000000    0.6764950000000000    0.6609959999999990 H
   0.9869910000000000    0.6178620000000000    0.2430749999999990 H
   0.4869909999999991    0.3821380000000000    0.2569250000000000 H
   0.0130090000000000    0.3821380000000000    0.7569250000000000 H
   0.5130089999999990    0.6178620000000000    0.7430749999999990 H
   0.0502769999999990    0.6645150000000000    0.2270990000000000 C
   0.5502770000000000    0.3354850000000000    0.2729010000000000 C
   0.9497230000000000    0.3354850000000000    0.7729009999999999 C
   0.4497230000000000    0.6645150000000000    0.7270989999999991 C
   0.5427719999999990    0.7634100000000000    0.1843060000000000 N
   0.0427720000000000    0.2365900000000000    0.3156940000000000 N
   0.4572279999999990    0.2365900000000000    0.8156939999999990 N
   0.9572280000000000    0.7634100000000000    0.6843060000000000 N
   0.4754219999999990    0.8443609999999990    0.2785829999999990 N
   0.9754220000000000    0.1556390000000000    0.2214170000000000 N
   0.5245780000000000    0.1556390000000000    0.7214170000000000 N
   0.0245780000000000    0.8443609999999990    0.7785829999999990 N
   0.5180910000000000    0.7813510000000000    0.9787849999999991 Cl
   0.0180910000000000    0.2186489999999990    0.5212150000000000 Cl
   0.4819090000000000    0.2186489999999990    0.0212149999999990 Cl
   0.9819089999999990    0.7813510000000000    0.4787849999999990 Cl
   0.7355030000000000    0.8055200000000000    0.0908500000000000 Cl
   0.2355030000000000    0.1944800000000000    0.4091500000000000 Cl
   0.2644970000000000    0.1944800000000000    0.9091500000000001 Cl
   0.7644970000000000    0.8055200000000000    0.5908500000000001 Cl
   0.4331970000000000    0.6135539999999990    0.1592210000000000 Cl
   0.9331969999999991    0.3864459999999990    0.3407790000000000 Cl
   0.5668029999999999    0.3864459999999990    0.8407789999999991 Cl
   0.0668030000000000    0.6135539999999990    0.6592209999999999 Cl
   0.3071840000000000    0.8274239999999990    0.1336159999999990 Cl
   0.8071840000000000    0.1725759999999990    0.3663840000000000 Cl
   0.6928160000000000    0.1725759999999990    0.8663839999999990 Cl
   0.1928160000000000    0.8274239999999990    0.6336160000000000 Cl
   0.5643530000000000    0.9820970000000000    0.0971559999999990 Cl
   0.0643530000000000    0.0179030000000000    0.4028440000000000 Cl
   0.4356470000000000    0.0179030000000000    0.9028440000000000 Cl
   0.9356470000000000    0.9820970000000000    0.5971560000000000 Cl
   0.4876620000000000    0.7974669999999990    0.4839890000000000 Cl
   0.9876619999999990    0.2025330000000000    0.0160110000000000 Cl
   0.5123380000000000    0.2025330000000000    0.5160110000000000 Cl
   0.0123380000000000    0.7974669999999990    0.9839890000000000 Cl
   0.2705539999999990    0.8215519999999999    0.3643570000000000 Cl
   0.7705540000000000    0.1784480000000000    0.1356429999999990 Cl
   0.7294459999999990    0.1784480000000000    0.6356430000000000 Cl
   0.2294459999999990    0.8215519999999999    0.8643569999999990 Cl
   0.3547119999999990    0.0265340000000000    0.2422720000000000 Cl
   0.8547119999999990    0.9734659999999991    0.2577280000000000 Cl
   0.6452880000000000    0.9734659999999991    0.7577280000000000 Cl
   0.1452880000000000    0.0265340000000000    0.7422719999999990 Cl
   0.5901300000000000    0.9786710000000000    0.3314900000000000 Cl
   0.0901300000000000    0.0213290000000000    0.1685100000000000 Cl
   0.4098700000000000    0.0213290000000000    0.6685100000000000 Cl
   0.9098700000000001    0.9786710000000000    0.8314900000000001 Cl
   0.3613600000000000    0.9866419999999991    0.4561770000000000 Cl
   0.8613600000000000    0.0133580000000000    0.0438230000000000 Cl
   0.6386400000000001    0.0133580000000000    0.5438229999999999 Cl
   0.1386400000000000    0.9866419999999991    0.9561769999999991 Cl
   0.6760619999999991    0.5752020000000000    0.5714520000000000 Cl
   0.1760620000000000    0.4247979999999990    0.9285479999999990 Cl
   0.3239380000000000    0.4247979999999990    0.4285480000000000 Cl
   0.8239379999999999    0.5752020000000000    0.0714520000000000 Cl
   0.8898050000000000    0.5664210000000000    0.4589970000000000 Cl
   0.3898049999999990    0.4335790000000000    0.0410030000000000 Cl
   0.1101950000000000    0.4335790000000000    0.5410030000000000 Cl
   0.6101949999999990    0.5664210000000000    0.9589970000000000 Cl
   0.7260160000000000    0.7369319999999990    0.3809369999999990 Cl
   0.2260160000000000    0.2630679999999990    0.1190629999999990 Cl
   0.2739840000000000    0.2630679999999990    0.6190629999999990 Cl
   0.7739840000000000    0.7369319999999990    0.8809370000000000 Cl
   0.7473420000000000    0.5835270000000000    0.2770710000000000 Cl
   0.2473419999999990    0.4164730000000000    0.2229290000000000 Cl
   0.2526580000000000    0.4164730000000000    0.7229289999999990 Cl
   0.7526579999999991    0.5835270000000000    0.7770710000000000 Cl
   0.5318539999999990    0.5911630000000000    0.3919100000000000 Cl
   0.0318540000000000    0.4088370000000000    0.1080900000000000 Cl
   0.4681460000000000    0.4088370000000000    0.6080900000000000 Cl
   0.9681460000000000    0.5911630000000000    0.8919100000000001 Cl
   0.6979590000000000    0.4194279999999990    0.4678029999999990 Cl
   0.1979590000000000    0.5805720000000000    0.0321969999999990 Cl
   0.3020410000000000    0.5805720000000000    0.5321970000000000 Cl
   0.8020410000000000    0.4194279999999990    0.9678030000000000 Cl
   0.1515370000000000    0.6159890000000000    0.2989700000000000 Cl
   0.6515369999999990    0.3840110000000000    0.2010300000000000 Cl
   0.8484630000000000    0.3840110000000000    0.7010300000000000 Cl
   0.3484629999999990    0.6159890000000000    0.7989700000000001 Cl
   0.0088120000000000    0.7653780000000000    0.2384020000000000 Cl
   0.5088119999999990    0.2346220000000000    0.2615980000000000 Cl
   0.9911880000000000    0.2346220000000000    0.7615980000000000 Cl
   0.4911879999999990    0.7653780000000000    0.7384020000000000 Cl
