Hg6 As2 Se8 I2
1.0
   3.9445519999999998   -6.8321639999999997    0.0000000000000000
   3.9445519999999998    6.8321639999999997    0.0000000000000000
   0.0000000000000000    0.0000000000000000   10.6963690000000007
Hg As Se I
6 2 8 2
direct
   0.4981150000000000    0.9962310000000000    0.2413870000000000 Hg
   0.5018850000000000    0.0037689999999990    0.7413870000000000 Hg
   0.0037689999999990    0.5018850000000000    0.2413870000000000 Hg
   0.9962310000000000    0.4981150000000000    0.7413870000000000 Hg
   0.4981150000000000    0.5018850000000000    0.2413870000000000 Hg
   0.5018850000000000    0.4981150000000000    0.7413870000000000 Hg
   0.0000000000000000    0.0000000000000000    0.2372610000000000 As
   0.0000000000000000    0.0000000000000000    0.7372609999999991 As
   0.3026990000000000    0.1513489999999990    0.3591180000000000 Se
   0.8486509999999990    0.6973009999999999    0.3591180000000000 Se
   0.8486509999999990    0.1513489999999990    0.3591180000000000 Se
   0.1513489999999990    0.3026990000000000    0.8591179999999990 Se
   0.3333330000000000    0.6666670000000000    0.1148680000000000 Se
   0.1513489999999990    0.8486509999999990    0.8591179999999990 Se
   0.6666670000000000    0.3333330000000000    0.6148680000000000 Se
   0.6973009999999999    0.8486509999999990    0.8591179999999990 Se
   0.3333330000000000    0.6666670000000000    0.5309780000000000 I
   0.6666670000000000    0.3333330000000000    0.0309780000000000 I
