Co4 Bi24 S8 O64
1.0
  -0.0001580000000000   -5.6639499999999998   -0.0000390000000000
  23.3495579999999983    0.0007410000000000    2.1522049999999999
  -0.0444640000000000   -0.0000350000000000   11.4092680000000009
Co Bi S O
4 24 8 64
direct
   0.1057559999999990    0.4999750000000000    0.9999800000000001 Co
   0.6529159999999991    0.7503409999999990    0.5003710000000000 Co
   0.1059570000000000    0.9999990000000000    0.0000000000000000 Co
   0.6522080000000000    0.2497059999999990    0.4996680000000000 Co
   0.1243060000000000    0.8269780000000000    0.9916659999999990 Bi
   0.6259739999999990    0.0772440000000000    0.4946300000000000 Bi
   0.1246250000000000    0.3270740000000000    0.9917319999999999 Bi
   0.6258260000000000    0.5773360000000000    0.4946500000000000 Bi
   0.1245159999999990    0.6728950000000000    0.0083640000000000 Bi
   0.6259760000000000    0.9227249999999990    0.5053040000000000 Bi
   0.1244089999999990    0.1729979999999990    0.0082659999999990 Bi
   0.6258110000000000    0.4227420000000000    0.5053780000000000 Bi
   0.6276360000000000    0.7611730000000000    0.1706310000000000 Bi
   0.1293880000000000    0.0103270000000000    0.6708100000000000 Bi
   0.6280200000000000    0.2613430000000000    0.1705009999999990 Bi
   0.1292230000000000    0.5102650000000000    0.6706569999999999 Bi
   0.6280000000000000    0.7386189999999990    0.8295450000000000 Bi
   0.1294010000000000    0.9896739999999991    0.3291540000000000 Bi
   0.6277920000000000    0.2388360000000000    0.8293830000000000 Bi
   0.1293910000000000    0.4897579999999990    0.3292710000000000 Bi
   0.0525239999999990    0.6691260000000000    0.6722580000000000 Bi
   0.5484030000000000    0.9200510000000000    0.1679680000000000 Bi
   0.0524240000000000    0.1692219999999990    0.6722779999999990 Bi
   0.5485120000000000    0.4201580000000000    0.1680559999999990 Bi
   0.0524990000000000    0.8308000000000001    0.3275679999999990 Bi
   0.5484080000000000    0.0799590000000000    0.8319690000000000 Bi
   0.0523750000000000    0.3308680000000000    0.3279110000000000 Bi
   0.5483330000000000    0.5798139999999991    0.8320250000000000 Bi
   0.6743030000000000    0.9243560000000000    0.8656860000000000 S
   0.1740219999999990    0.1763549999999990    0.3674989999999990 S
   0.6744430000000000    0.4243869999999990    0.8656870000000000 S
   0.1749330000000000    0.6765089999999990    0.3679190000000000 S
   0.6741119999999990    0.5756140000000000    0.1343460000000000 S
   0.1738910000000000    0.8235900000000000    0.6322670000000000 S
   0.6743290000000000    0.0756339999999990    0.1342880000000000 S
   0.1747940000000000    0.3235520000000000    0.6323300000000001 S
   0.8787680000000000    0.7499819999999990    0.0000220000000000 O
   0.3803439999999990    0.9999849999999991    0.4999980000000000 O
   0.8788509999999990    0.2499920000000000    0.9999950000000000 O
   0.3800739999999990    0.5000180000000000    0.4999840000000000 O
   0.3591550000000000    0.7500089999999990    0.9999920000000000 O
   0.8598830000000000    0.9999929999999991    0.4999829999999990 O
   0.3593590000000000    0.2499710000000000    0.0000230000000000 O
   0.8594860000000000    0.5000310000000000    0.4999869999999990 O
   0.9011640000000000    0.9388289999999990    0.9265340000000000 O
   0.3986780000000000    0.1921719999999990    0.4265239999999990 O
   0.9015430000000000    0.4388249999999990    0.9263600000000001 O
   0.3996079999999990    0.6921959999999990    0.4270060000000000 O
   0.9009670000000000    0.5610849999999999    0.0735810000000000 O
   0.3984169999999990    0.8078280000000000    0.5730860000000000 O
   0.9012150000000000    0.0611769999999990    0.0734490000000000 O
   0.3994410000000000    0.3077620000000000    0.5733420000000000 O
   0.4721470000000000    0.9333420000000000    0.9477559999999990 O
   0.9697100000000001    0.1856550000000000    0.4496310000000000 O
   0.4724589999999990    0.4334469999999990    0.9477770000000000 O
   0.9706039999999990    0.6858300000000001    0.4500260000000000 O
   0.4719210000000000    0.5666730000000000    0.0522910000000000 O
   0.9694119999999991    0.8142579999999990    0.5502270000000000 O
   0.4721960000000000    0.0666300000000000    0.0522150000000000 O
   0.9705030000000000    0.3142900000000000    0.5501659999999990 O
   0.6859510000000000    0.8640470000000000    0.8398620000000000 O
   0.1839470000000000    0.1155379999999990    0.3444069999999990 O
   0.6858420000000000    0.3640430000000000    0.8399400000000000 O
   0.1843020000000000    0.6157319999999999    0.3444740000000000 O
   0.6859710000000000    0.6359440000000000    0.1601780000000000 O
   0.1836259999999990    0.8844080000000000    0.6553460000000000 O
   0.6859459999999999    0.1359429999999990    0.1601100000000000 O
   0.1845949999999990    0.3843340000000000    0.6557350000000000 O
   0.1412340000000000    0.7155220000000000    0.2574950000000000 O
   0.6454520000000000    0.9644969999999990    0.7569150000000000 O
   0.1403309999999990    0.2152290000000000    0.2569849999999990 O
   0.6455280000000000    0.4644810000000000    0.7568659999999990 O
   0.1405060000000000    0.7847050000000000    0.7427900000000001 O
   0.6455050000000000    0.0354890000000000    0.2430620000000000 O
   0.1407850000000000    0.2845720000000000    0.7427650000000000 O
   0.6450110000000000    0.5355139999999990    0.2431489999999990 O
   0.7005629999999990    0.7944289999999991    0.3511039999999990 O
   0.2005870000000000    0.0425150000000000    0.8544450000000000 O
   0.7003539999999990    0.2945339999999990    0.3513460000000000 O
   0.2002989999999990    0.5424749999999990    0.8544590000000000 O
   0.7005410000000000    0.7054800000000001    0.6487470000000000 O
   0.2005190000000000    0.9574710000000000    0.1455380000000000 O
   0.7004929999999990    0.2055459999999990    0.6487860000000000 O
   0.2006119999999990    0.4575700000000000    0.1455469999999990 O
   0.8906160000000000    0.8335220000000000    0.1464810000000000 O
   0.3914590000000000    0.0825969999999990    0.6493320000000000 O
   0.8908860000000000    0.3335200000000000    0.1465950000000000 O
   0.3913820000000000    0.5825720000000000    0.6493869999999990 O
   0.8908400000000001    0.6664420000000000    0.8535050000000000 O
   0.3914459999999990    0.9174019999999991    0.3506120000000000 O
   0.8906790000000000    0.1664979999999990    0.8534269999999990 O
   0.3914160000000000    0.4174380000000000    0.3506320000000000 O
   0.3838810000000000    0.8363600000000001    0.1455500000000000 O
   0.8873869999999990    0.0855949999999990    0.6472709999999990 O
   0.3844180000000000    0.3364160000000000    0.1454200000000000 O
   0.8874190000000000    0.5855850000000000    0.6472200000000000 O
   0.3843510000000000    0.6635600000000000    0.8546469999999990 O
   0.8873400000000000    0.9144100000000001    0.3526670000000000 O
   0.3840010000000000    0.1636459999999990    0.8544309999999991 O
   0.8874970000000000    0.4144350000000000    0.3528000000000000 O
