K6 Nd2 As4 S16
1.0
   9.6816530000000007    5.3126449999999998    0.0000000000000000
  -9.6816530000000007    5.3126449999999998    0.0000000000000000
   0.0000000000000000    4.2234499999999997    8.0622670000000003
K Nd As S
6 2 4 16
direct
   0.0035459999999990    0.9964540000000000    0.2500000000000000 K
   0.9964540000000000    0.0035459999999990    0.7500000000000000 K
   0.2581529999999990    0.7418469999999990    0.2500000000000000 K
   0.5000000000000000    0.5000000000000000    0.0000000000000000 K
   0.7418469999999990    0.2581529999999990    0.7500000000000000 K
   0.5000000000000000    0.5000000000000000    0.5000000000000000 K
   0.2427190000000000    0.7572810000000000    0.7500000000000000 Nd
   0.7572810000000000    0.2427190000000000    0.2500000000000000 Nd
   0.9058470000000000    0.6573920000000000    0.1042800000000000 As
   0.0941530000000000    0.3426079999999990    0.8957200000000001 As
   0.6573920000000000    0.9058470000000000    0.6042800000000000 As
   0.3426079999999990    0.0941530000000000    0.3957200000000000 As
   0.8442060000000000    0.1324749999999990    0.0189359999999990 S
   0.2678080000000000    0.2393650000000000    0.3708059999999990 S
   0.8611690000000000    0.5053730000000000    0.3447420000000000 S
   0.5053730000000000    0.8611690000000000    0.8447420000000000 S
   0.4700060000000000    0.1261290000000000    0.5562640000000000 S
   0.7606350000000000    0.7321920000000000    0.1291940000000000 S
   0.1388309999999990    0.4946270000000000    0.6552580000000000 S
   0.5299940000000000    0.8738710000000000    0.4437359999999990 S
   0.1324749999999990    0.8442060000000000    0.5189360000000000 S
   0.8738710000000000    0.5299940000000000    0.9437359999999990 S
   0.1261290000000000    0.4700060000000000    0.0562639999999990 S
   0.7321920000000000    0.7606350000000000    0.6291939999999990 S
   0.4946270000000000    0.1388309999999990    0.1552579999999990 S
   0.1557940000000000    0.8675250000000000    0.9810639999999990 S
   0.8675250000000000    0.1557940000000000    0.4810640000000000 S
   0.2393650000000000    0.2678080000000000    0.8708060000000000 S
