Bi4 Pb6 S12
1.0
   2.0549369999999998   -6.8323039999999997    0.0000000000000000
   2.0549369999999998    6.8323039999999997    0.0000000000000000
   0.0000000000000000    0.0000000000000000   20.9285169999999994
Bi Pb S
4 6 12
direct
   0.0898700000000000    0.9101300000000001    0.3645020000000000 Bi
   0.9101300000000001    0.0898700000000000    0.6354980000000000 Bi
   0.0898700000000000    0.9101300000000001    0.1354980000000000 Bi
   0.9101300000000001    0.0898700000000000    0.8645020000000000 Bi
   0.3612720000000000    0.6387280000000000    0.4547040000000000 Pb
   0.6387280000000000    0.3612720000000000    0.5452960000000000 Pb
   0.3612720000000000    0.6387280000000000    0.0452959999999990 Pb
   0.6387280000000000    0.3612720000000000    0.9547040000000000 Pb
   0.8366330000000000    0.1633669999999990    0.2500000000000000 Pb
   0.1633669999999990    0.8366330000000000    0.7500000000000000 Pb
   0.1869309999999990    0.8130689999999990    0.2500000000000000 S
   0.8130689999999990    0.1869309999999990    0.7500000000000000 S
   0.4559269999999990    0.5440730000000000    0.3348300000000000 S
   0.5440730000000000    0.4559269999999990    0.6651700000000000 S
   0.4559269999999990    0.5440730000000000    0.1651700000000000 S
   0.5440730000000000    0.4559269999999990    0.8348300000000001 S
   0.7207060000000000    0.2792940000000000    0.4063690000000000 S
   0.2792940000000000    0.7207060000000000    0.5936310000000000 S
   0.7207060000000000    0.2792940000000000    0.0936309999999990 S
   0.2792940000000000    0.7207060000000000    0.9063690000000000 S
   0.0000000000000000    0.0000000000000000    0.5000000000000000 S
   0.0000000000000000    0.0000000000000000    0.0000000000000000 S
