Ag2 Bi6 S10
1.0
   4.0340507399999996    0.0000000000000000   -0.0000000000000000
  -2.0170248599999998    6.7135239400000000   -0.5412266300000000
  -0.0000000100000000   -0.1758754300000000   16.5881628399999990
Ag Bi S
2 6 10
direct
   0.5000000000000000    0.0000000000000000    0.5000000000000000 Ag
   0.0000000000000000    0.0000000000000000   -0.0000000000000000 Ag
   0.7794999800000000    0.5589979500000000    0.6065845200000000 Bi
   0.2205000200000000    0.4410020500000000    0.3934154800000000 Bi
   0.5265449400000000    0.0530898700000000    0.7818449900000000 Bi
   0.4734550600000000    0.9469101300000000    0.2181550100000000 Bi
   0.2642489200000000    0.5284958400000001    0.8912905200000000 Bi
   0.7357510800000000    0.4715041600000000    0.1087094800000000 Bi
   0.1511180400000000    0.3022350900000000    0.5344455000000000 S
   0.8488819600000000    0.6977649100000000    0.4655545000000000 S
   0.4248687800000000    0.8497395700000000    0.6361419100000000 S
   0.5751302200000000    0.1502604300000000    0.3638580900000000 S
   0.1565817700000000    0.3131635500000000    0.7437257400000000 S
   0.8434182300000000    0.6868364500000000    0.2562742600000000 S
   0.9106560400000000    0.8213130700000000    0.8578268800000001 S
   0.0893439600000000    0.1786869300000000    0.1421731200000000 S
   0.3552522100000000    0.7105054200000001    0.0575165200000000 S
   0.6447477900000000    0.2894945800000000    0.9424834800000000 S
