Hg3 Bi2 S2 Cl8
1.0
   3.7878829999999999    6.6448640000000001    0.0000000000000000
  -3.7878829999999999    6.6448640000000001    0.0000000000000000
   0.0000000000000000    4.2469260000000002    8.5257009999999998
Hg Bi S Cl
3 2 2 8
direct
   0.0000000000000000    0.5000000000000000    0.0000000000000000 Hg
   0.5000000000000000    0.0000000000000000    0.0000000000000000 Hg
   0.5000000000000000    0.5000000000000000    0.0000000000000000 Hg
   0.1267450000000000    0.1267450000000000    0.5739440000000000 Bi
   0.8732550000000000    0.8732550000000000    0.4260560000000000 Bi
   0.6247819999999999    0.6247819999999999    0.1248040000000000 S
   0.3752180000000000    0.3752180000000000    0.8751960000000000 S
   0.2395100000000000    0.7604900000000001    0.5000000000000000 Cl
   0.7604900000000001    0.2395100000000000    0.5000000000000000 Cl
   0.9274620000000000    0.4594270000000000    0.7103539999999990 Cl
   0.4594270000000000    0.9274620000000000    0.7103539999999990 Cl
   0.0725379999999990    0.5405730000000000    0.2896460000000000 Cl
   0.5405730000000000    0.0725379999999990    0.2896460000000000 Cl
   0.9510700000000001    0.9510700000000001    0.8500160000000000 Cl
   0.0489300000000000    0.0489300000000000    0.1499840000000000 Cl
