Cs12 Sb4 H8 S16 O4
1.0
  10.2064070000000005    0.0000000000000000    0.0000000000000000
   0.0000000000000000   10.0265350000000009    0.0000000000000000
   0.0000000000000000    9.6507280000000009   13.1694270000000007
Cs Sb H S O
12 4 8 16 4
direct
   0.3689130000000000    0.8986550000000000    0.2034870000000000 Cs
   0.8689129999999990    0.1013449999999990    0.2965129999999990 Cs
   0.6310870000000000    0.1013449999999990    0.7965129999999990 Cs
   0.1310869999999990    0.8986550000000000    0.7034870000000000 Cs
   0.0783540000000000    0.7160190000000000    0.0468040000000000 Cs
   0.5783539999999990    0.2839810000000000    0.4531960000000000 Cs
   0.9216460000000000    0.2839810000000000    0.9531959999999990 Cs
   0.4216459999999990    0.7160190000000000    0.5468040000000000 Cs
   0.0835569999999990    0.4234949999999990    0.4205460000000000 Cs
   0.5835570000000000    0.5765049999999990    0.0794540000000000 Cs
   0.9164430000000000    0.5765049999999990    0.5794540000000000 Cs
   0.4164430000000000    0.4234949999999990    0.9205460000000000 Cs
   0.2919480000000000    0.2477859999999990    0.2745050000000000 Sb
   0.7919480000000000    0.7522139999999991    0.2254950000000000 Sb
   0.7080520000000000    0.7522139999999991    0.7254950000000000 Sb
   0.2080520000000000    0.2477859999999990    0.7745050000000000 Sb
   0.1557079999999990    0.8707389999999990    0.4066269999999990 H
   0.6557080000000000    0.1292610000000000    0.0933730000000000 H
   0.8442919999999990    0.1292610000000000    0.5933729999999990 H
   0.3442920000000000    0.8707389999999990    0.9066270000000000 H
   0.0975540000000000    0.8144509999999990    0.3418250000000000 H
   0.5975539999999990    0.1855490000000000    0.1581749999999990 H
   0.9024460000000000    0.1855490000000000    0.6581750000000000 H
   0.4024459999999990    0.8144509999999990    0.8418249999999990 H
   0.6694629999999990    0.9284910000000000    0.0741889999999990 S
   0.1694630000000000    0.0715090000000000    0.4258110000000000 S
   0.3305369999999990    0.0715090000000000    0.9258109999999991 S
   0.8305370000000000    0.9284910000000000    0.5741889999999999 S
   0.9983649999999999    0.8800469999999990    0.1997580000000000 S
   0.4983650000000000    0.1199529999999990    0.3002420000000000 S
   0.0016350000000000    0.1199529999999990    0.8002420000000000 S
   0.5016349999999991    0.8800469999999990    0.6997580000000000 S
   0.3268560000000000    0.5037050000000000    0.2484100000000000 S
   0.8268559999999990    0.4962950000000000    0.2515900000000000 S
   0.6731440000000000    0.4962950000000000    0.7515900000000001 S
   0.1731440000000000    0.5037050000000000    0.7484100000000000 S
   0.1831229999999990    0.2838739999999990    0.1358629999999990 S
   0.6831229999999990    0.7161259999999990    0.3641370000000000 S
   0.8168770000000000    0.7161259999999990    0.8641369999999990 S
   0.3168769999999990    0.2838739999999990    0.6358630000000000 S
   0.1490449999999990    0.7738490000000000    0.4040900000000001 O
   0.6490450000000000    0.2261510000000000    0.0959100000000000 O
   0.8509550000000000    0.2261510000000000    0.5959100000000001 O
   0.3509549999999990    0.7738490000000000    0.9040900000000001 O
