Cs4 As2 H6 Se2 O16
1.0
   8.1628109999999996    0.0000000000000000    0.0000000000000000
   1.6402420000000000    8.0315250000000002    0.0000000000000000
   0.0809729999999990    0.3248550000000000    8.2213700000000003
Cs As H Se O
4 2 6 2 16
direct
   0.1179809999999990    0.7680340000000000    0.8322090000000000 Cs
   0.6079430000000000    0.2762940000000000    0.6666010000000000 Cs
   0.8820190000000000    0.2319659999999990    0.1677910000000000 Cs
   0.3920570000000000    0.7237060000000000    0.3333990000000000 Cs
   0.6024079999999991    0.7497140000000000    0.8232889999999990 As
   0.3975920000000000    0.2502860000000000    0.1767109999999990 As
   0.5000000000000000    0.0000000000000000    0.0000000000000000 H
   0.0000000000000000    0.5000000000000000    0.5000000000000000 H
   0.7636350000000000    0.6207250000000000    0.0421500000000000 H
   0.2717239999999990    0.1254050000000000    0.3960189999999990 H
   0.2363650000000000    0.3792750000000000    0.9578500000000001 H
   0.7282759999999990    0.8745950000000000    0.6039810000000000 H
   0.1129430000000000    0.2470750000000000    0.6745030000000000 Se
   0.8870570000000000    0.7529250000000000    0.3254970000000000 Se
   0.4963800000000000    0.6588339999999990    0.6942610000000000 O
   0.9940279999999990    0.1644280000000000    0.8051800000000001 O
   0.5036200000000001    0.3411659999999990    0.3057390000000000 O
   0.0059720000000000    0.8355720000000000    0.1948200000000000 O
   0.7554020000000000    0.5945870000000000    0.9235460000000000 O
   0.2499320000000000    0.0973520000000000    0.5845389999999990 O
   0.2445979999999990    0.4054129999999990    0.0764540000000000 O
   0.7500680000000000    0.9026480000000000    0.4154609999999990 O
   0.4838800000000000    0.8596250000000000    0.9718500000000001 O
   0.9847229999999991    0.3560770000000000    0.5245870000000000 O
   0.5161200000000000    0.1403750000000000    0.0281500000000000 O
   0.0152769999999990    0.6439230000000000    0.4754130000000000 O
   0.7223029999999990    0.8836320000000000    0.7282630000000000 O
   0.2142359999999990    0.3799389999999990    0.7595860000000000 O
   0.2776969999999990    0.1163680000000000    0.2717370000000000 O
   0.7857640000000000    0.6200610000000000    0.2404140000000000 O
