Bi4 Pb6 S12
1.0
   2.0476241399999999    6.8080029800000004    0.0235776900000000
  -2.0476241399999999    6.8080029800000004    0.0235776900000000
  -0.0000000000000000    0.9344851999999991   21.0953474099999987
Bi Pb S
4 6 12
direct
   0.4027365900000000    0.4027365900000000    0.1348861800000000 Bi
   0.8587506800000000    0.8587506800000000    0.5490390600000000 Bi
   0.1412493200000000    0.1412493200000000    0.4509609400000000 Bi
   0.5972634100000001    0.5972634100000001    0.8651138200000000 Bi
   0.5765672700000000    0.5765672700000000    0.6352715700000000 Pb
   0.4234327300000000    0.4234327300000000    0.3647284300000000 Pb
   0.8658197600000000    0.8658197600000000    0.9538344200000001 Pb
   0.6759590400000001    0.6759590400000001    0.2347752400000000 Pb
   0.1341802400000000    0.1341802400000000    0.0461655800000000 Pb
   0.3240409600000000    0.3240409600000000    0.7652247600000001 Pb
   0.3168444400000000    0.3168444400000000    0.2497413700000000 S
   0.7646431200000000    0.7646431200000000    0.1026651500000000 S
   0.7689929200000000    0.7689929200000000    0.4190574500000000 S
   0.9364891800000000    0.9364891800000000    0.6631199300000000 S
   0.6831555600000000    0.6831555600000000    0.7502586300000000 S
   0.2310070800000000    0.2310070800000000    0.5809425500000001 S
   0.5000000000000000    0.5000000000000000    0.0000000000000000 S
   0.2353568800000000    0.2353568800000000    0.8973348500000000 S
   0.0635108200000000    0.0635108200000000    0.3368800700000000 S
   0.0335107600000000    0.0335107600000000    0.1625154600000000 S
   0.5000000000000000    0.5000000000000000    0.5000000000000000 S
   0.9664892400000000    0.9664892400000000    0.8374845400000001 S
