Ba12 Sb8 Se28
1.0
   6.4670589999999999    9.6507120000000004    0.0000000000000000
  -6.4670589999999999    9.6507120000000004    0.0000000000000000
   0.0000000000000000    4.7099159999999998   13.0568500000000007
Ba Sb Se
12 8 28
direct
   0.3955320000000000    0.4062310000000000    0.6724749999999990 Ba
   0.5937690000000000    0.6044680000000000    0.8275250000000000 Ba
   0.6044680000000000    0.5937690000000000    0.3275250000000000 Ba
   0.4062310000000000    0.3955320000000000    0.1724750000000000 Ba
   0.8981640000000000    0.8926949999999990    0.6748719999999990 Ba
   0.1073050000000000    0.1018360000000000    0.8251280000000000 Ba
   0.1018360000000000    0.1073050000000000    0.3251280000000000 Ba
   0.8926949999999990    0.8981640000000000    0.1748720000000000 Ba
   0.1148609999999990    0.6201810000000000    0.9444480000000000 Ba
   0.3798189999999990    0.8851390000000000    0.5555519999999990 Ba
   0.8851390000000000    0.3798189999999990    0.0555520000000000 Ba
   0.6201810000000000    0.1148609999999990    0.4444479999999990 Ba
   0.7595000000000001    0.7051069999999990    0.5092600000000000 Sb
   0.2948929999999990    0.2405000000000000    0.9907400000000001 Sb
   0.2405000000000000    0.2948929999999990    0.4907400000000001 Sb
   0.7051069999999990    0.7595000000000001    0.0092600000000000 Sb
   0.8589530000000000    0.3093380000000000    0.5951989999999990 Sb
   0.6906620000000000    0.1410470000000000    0.9048010000000000 Sb
   0.1410470000000000    0.6906620000000000    0.4048009999999990 Sb
   0.3093380000000000    0.8589530000000000    0.0951989999999990 Sb
   0.1955619999999990    0.7020100000000000    0.6829050000000000 Se
   0.2979900000000000    0.8044380000000000    0.8170950000000000 Se
   0.8044380000000000    0.2979900000000000    0.3170949999999990 Se
   0.7020100000000000    0.1955619999999990    0.1829049999999990 Se
   0.0992450000000000    0.6016389999999990    0.6121650000000000 Se
   0.3983600000000000    0.9007550000000000    0.8878349999999990 Se
   0.9007550000000000    0.3983600000000000    0.3878350000000000 Se
   0.6016400000000001    0.0992450000000000    0.1121650000000000 Se
   0.1455020000000000    0.3575040000000000    0.8596659999999990 Se
   0.6424960000000000    0.8544980000000000    0.6403340000000000 Se
   0.8544980000000000    0.6424960000000000    0.1403340000000000 Se
   0.3575040000000000    0.1455020000000000    0.3596660000000000 Se
   0.8503529999999990    0.6424609999999999    0.8620450000000000 Se
   0.3575390000000000    0.1496470000000000    0.6379549999999991 Se
   0.1496470000000000    0.3575390000000000    0.1379550000000000 Se
   0.6424609999999999    0.8503529999999990    0.3620450000000000 Se
   0.5954750000000000    0.5749090000000000    0.5857010000000000 Se
   0.4250910000000000    0.4045249999999990    0.9142990000000000 Se
   0.4045249999999990    0.4250910000000000    0.4142990000000000 Se
   0.5749090000000000    0.5954750000000000    0.0857010000000000 Se
   0.0606030000000000    0.1003600000000000    0.5888490000000000 Se
   0.8996400000000001    0.9393969999999990    0.9111509999999990 Se
   0.9393969999999990    0.8996400000000001    0.4111510000000000 Se
   0.1003600000000000    0.0606030000000000    0.0888490000000000 Se
   0.6960060000000000    0.1953329999999990    0.6313970000000000 Se
   0.8046669999999990    0.3039940000000000    0.8686030000000000 Se
   0.3039940000000000    0.8046669999999990    0.3686029999999990 Se
   0.1953329999999990    0.6960060000000000    0.1313969999999990 Se
