Te7 As5 I1
1.0
   2.0393509999999999    7.5249860000000002    0.0000000000000000
  -2.0393509999999999    7.5249860000000002    0.0000000000000000
   0.0000000000000000    4.9406530000000002   13.1698550000000001
Te As I
7 5 1
direct
   0.1738500000000000    0.1738500000000000    0.6284360000000000 Te
   0.8247780000000000    0.8247780000000000    0.3797490000000000 Te
   0.9033770000000000    0.9033770000000000    0.6558640000000000 Te
   0.0984080000000000    0.0984080000000000    0.3396670000000000 Te
   0.4859839999999990    0.4859839999999990    0.8551559999999990 Te
   0.5115109999999990    0.5115109999999990    0.1451160000000000 Te
   0.7980929999999991    0.7980929999999991    0.0945970000000000 Te
   0.9908859999999990    0.9908859999999990    0.0055870000000000 As
   0.6780320000000000    0.6780320000000000    0.7669110000000000 As
   0.3199760000000000    0.3199760000000000    0.2260760000000000 As
   0.3662510000000000    0.3662510000000000    0.5439970000000000 As
   0.6356970000000000    0.6356970000000000    0.4508700000000000 As
   0.2131580000000000    0.2131580000000000    0.9079750000000000 I
