As2 P6 H36 C12 S12 O12
1.0
   8.6328300000000002    0.0000000000000000    0.0000000000000000
   0.4216610000000000    9.2779430000000005    0.0000000000000000
   3.6734830000000001    2.2122530000000000   14.5402550000000002
As P H C S O
2 6 36 12 12 12
direct
   0.4961450000000000    0.2043610000000000    0.2654289999999990 As
   0.5038549999999991    0.7956390000000000    0.7345710000000000 As
   0.2375179999999990    0.5540680000000000    0.8410430000000000 P
   0.2577750000000000    0.2742549999999990    0.4562150000000000 P
   0.7422249999999990    0.7257450000000000    0.5437850000000000 P
   0.4577100000000001    0.9298710000000000    0.1654159999999990 P
   0.5422900000000000    0.0701290000000000    0.8345840000000000 P
   0.7624820000000000    0.4459320000000000    0.1589570000000000 P
   0.7698980000000000    0.0199519999999990    0.0517489999999990 H
   0.2942210000000000    0.0071400000000000    0.5809700000000001 H
   0.1439379999999990    0.6440810000000000    0.4536679999999990 H
   0.3482719999999990    0.5807990000000000    0.4349719999999990 H
   0.7057789999999990    0.9928600000000001    0.4190300000000000 H
   0.8560620000000000    0.3559190000000000    0.5463319999999990 H
   0.2011580000000000    0.1396590000000000    0.8688800000000001 H
   0.6435109999999991    0.4490860000000000    0.9947100000000001 H
   0.8166279999999990    0.5389309999999990    0.9188539999999999 H
   0.1431740000000000    0.8288550000000000    0.2738160000000000 H
   0.1937750000000000    0.9654969999999991    0.4971410000000000 H
   0.2301020000000000    0.9800479999999990    0.9482510000000000 H
   0.3564890000000000    0.5509140000000000    0.0052900000000000 H
   0.1833719999999990    0.4610690000000000    0.0811460000000000 H
   0.7988419999999991    0.8603409999999990    0.1311200000000000 H
   0.0689159999999990    0.8165100000000001    0.1741930000000000 H
   0.0832750000000000    0.9703339999999990    0.6134530000000000 H
   0.8568260000000000    0.1711450000000000    0.7261839999999991 H
   0.1840860000000000    0.1542960000000000    0.9874820000000000 H
   0.6517280000000000    0.4192010000000000    0.5650280000000000 H
   0.8062250000000000    0.0345030000000000    0.5028589999999999 H
   0.9167250000000000    0.0296659999999990    0.3865470000000000 H
   0.8336749999999991    0.3562110000000000    0.9762050000000000 H
   0.1171600000000000    0.3600600000000000    0.6870860000000000 H
   0.7672359999999990    0.4379750000000000    0.6466029999999990 H
   0.9310839999999990    0.1834900000000000    0.8258070000000000 H
   0.1663250000000000    0.6437889999999999    0.0237950000000000 H
   0.3008210000000000    0.4573009999999990    0.6634860000000000 H
   0.6991790000000000    0.5426989999999990    0.3365140000000000 H
   0.8868400000000001    0.4445240000000000    0.3219590000000000 H
   0.8842589999999990    0.0083600000000000    0.8028919999999991 H
   0.2327640000000000    0.5620250000000000    0.3533969999999990 H
   0.1131600000000000    0.5554760000000000    0.6780410000000000 H
   0.1157410000000000    0.9916400000000001    0.1971079999999990 H
   0.8159139999999990    0.8457040000000000    0.0125180000000000 H
   0.8828400000000001    0.6399400000000001    0.3129139999999990 H
   0.2267600000000000    0.5379060000000000    0.0181700000000000 C
   0.8177709999999990    0.9814090000000000    0.4416230000000000 C
   0.1742950000000000    0.4548060000000000    0.7000510000000000 C
   0.7541150000000000    0.9013589999999990    0.0698860000000000 C
   0.2458850000000000    0.0986409999999990    0.9301140000000000 C
   0.7713340000000000    0.4386430000000000    0.5735359999999990 C
   0.7732400000000000    0.4620940000000000    0.9818300000000001 C
   0.8509340000000000    0.1245360000000000    0.7981500000000000 C
   0.1490660000000000    0.8754639999999990    0.2018500000000000 C
   0.2286659999999990    0.5613570000000000    0.4264639999999990 C
   0.8257049999999990    0.5451940000000000    0.2999489999999990 C
   0.1822290000000000    0.0185910000000000    0.5583770000000000 C
   0.5578139999999990    0.8470869999999990    0.8723919999999999 S
   0.5175890000000000    0.4578790000000000    0.2041000000000000 S
   0.4824110000000000    0.5421210000000000    0.7959000000000001 S
   0.4850609999999990    0.2621860000000000    0.4548770000000000 S
   0.1602859999999990    0.7553719999999990    0.8171839999999990 S
   0.8397140000000000    0.2446279999999990    0.1828159999999990 S
   0.4883900000000000    0.8820969999999990    0.2907329999999990 S
   0.5116100000000000    0.1179030000000000    0.7092670000000000 S
   0.4421859999999990    0.1529130000000000    0.1276080000000000 S
   0.5149389999999990    0.7378140000000000    0.5451230000000000 S
   0.2170880000000000    0.2335580000000000    0.3335039999999990 S
   0.7829119999999991    0.7664420000000000    0.6664960000000000 S
   0.1872250000000000    0.4741430000000000    0.9450360000000000 O
   0.1414820000000000    0.1718170000000000    0.5386970000000000 O
   0.8127749999999990    0.5258570000000000    0.0549640000000000 O
   0.1589090000000000    0.4360190000000000    0.7987639999999990 O
   0.3073269999999990    0.8563620000000000    0.1454250000000000 O
   0.4129040000000000    0.1348580000000000    0.9134960000000000 O
   0.8585180000000000    0.8281830000000000    0.4613029999999990 O
   0.6926730000000000    0.1436380000000000    0.8545750000000000 O
   0.5870960000000000    0.8651420000000000    0.0865040000000000 O
   0.8410909999999990    0.5639810000000000    0.2012360000000000 O
   0.1680780000000000    0.4231510000000000    0.4799210000000000 O
   0.8319219999999991    0.5768489999999999    0.5200790000000000 O
