Cu12 Bi8 S16 Cl4
1.0
   0.0000000000000000    0.0000000000000000   -4.0363780000000000
   0.0000000000000000  -10.4037500000000005    0.0000000000000000
 -20.9216729999999984    0.0000000000000000    0.0000000000000000
Cu Bi S Cl
12 8 16 4
direct
   0.2770420000000000    0.7729400000000001    0.0327630000000000 Cu
   0.7770420000000000    0.2270600000000000    0.4672369999999990 Cu
   0.7229580000000000    0.7270600000000000    0.5327630000000000 Cu
   0.2229580000000000    0.2729400000000000    0.9672369999999991 Cu
   0.3328230000000000    0.3724079999999990    0.1276100000000000 Cu
   0.8328230000000000    0.6275919999999990    0.3723900000000001 Cu
   0.6671770000000000    0.1275919999999990    0.6276100000000000 Cu
   0.1671770000000000    0.8724080000000000    0.8723900000000001 Cu
   0.9226930000000000    0.4859639999999991    0.0376880000000000 Cu
   0.4226930000000000    0.5140359999999990    0.4623120000000000 Cu
   0.0773070000000000    0.0140360000000000    0.5376879999999991 Cu
   0.5773070000000000    0.9859640000000000    0.9623119999999999 Cu
   0.7633730000000000    0.0580100000000000    0.1303659999999990 Bi
   0.2633729999999990    0.9419900000000001    0.3696339999999990 Bi
   0.2366269999999990    0.4419900000000000    0.6303660000000000 Bi
   0.7366269999999990    0.5580100000000000    0.8696339999999990 Bi
   0.8489240000000000    0.6421730000000000    0.1971840000000000 Bi
   0.3489240000000000    0.3578270000000000    0.3028160000000000 Bi
   0.1510760000000000    0.8578270000000000    0.6971839999999990 Bi
   0.6510760000000000    0.1421730000000000    0.8028160000000000 Bi
   0.2568490000000000    0.5881430000000000    0.1009250000000000 S
   0.7568490000000000    0.4118570000000000    0.3990749999999990 S
   0.7431510000000000    0.9118569999999990    0.6009249999999990 S
   0.2431509999999990    0.0881430000000000    0.8990750000000000 S
   0.7784280000000000    0.8802390000000000    0.0423980000000000 S
   0.2784280000000000    0.1197609999999990    0.4576019999999990 S
   0.2215720000000000    0.6197610000000000    0.5423979999999990 S
   0.7215720000000000    0.3802390000000000    0.9576020000000000 S
   0.2626600000000000    0.1899050000000000    0.0737439999999990 S
   0.7626600000000000    0.8100950000000000    0.4262559999999990 S
   0.7373400000000001    0.3100950000000000    0.5737439999999990 S
   0.2373400000000000    0.6899050000000000    0.9262560000000000 S
   0.7670929999999990    0.3872830000000000    0.2038950000000000 S
   0.2670929999999990    0.6127170000000000    0.2961050000000000 S
   0.2329070000000000    0.1127170000000000    0.7038949999999990 S
   0.7329070000000000    0.8872829999999990    0.7961050000000000 S
   0.2606529999999990    0.8885400000000001    0.1985770000000000 Cl
   0.7606529999999990    0.1114600000000000    0.3014219999999990 Cl
   0.7393470000000000    0.6114600000000000    0.6985770000000000 Cl
   0.2393469999999990    0.3885400000000001    0.8014230000000000 Cl
