Pr6 As2 S10 Cl4
1.0
   3.4944400000000000   11.0979010000000002    0.0000000000000000
  -3.4944400000000000   11.0979010000000002    0.0000000000000000
   0.0000000000000000    1.0908420000000001    7.0299090000000000
Pr As S Cl
6 2 10 4
direct
   0.2934680000000000    0.7073750000000000    0.4989100000000000 Pr
   0.7073750000000000    0.2934680000000000    0.9989100000000001 Pr
   0.8567880000000000    0.4375290000000000    0.5152789999999990 Pr
   0.4375290000000000    0.8567880000000000    0.0152790000000000 Pr
   0.1455179999999990    0.5489360000000000    0.1516370000000000 Pr
   0.5489360000000000    0.1455179999999990    0.6516370000000000 Pr
   0.9924980000000000    0.6098749999999999    0.7071850000000000 As
   0.6098749999999999    0.9924980000000000    0.2071849999999990 As
   0.6318210000000000    0.5214790000000000    0.2542540000000000 S
   0.5214790000000000    0.6318210000000000    0.7542540000000000 S
   0.3626669999999990    0.4781510000000000    0.8207310000000000 S
   0.4781510000000000    0.3626669999999990    0.3207310000000000 S
   0.7866860000000000    0.6803690000000000    0.1776980000000000 S
   0.6803690000000000    0.7866860000000000    0.6776980000000000 S
   0.1847560000000000    0.3470290000000000    0.5175130000000000 S
   0.3470290000000000    0.1847560000000000    0.0175130000000000 S
   0.9528510000000000    0.8034880000000000    0.4822860000000000 S
   0.8034880000000000    0.9528510000000000    0.9822860000000000 S
   0.0310030000000000    0.2332110000000000    0.8805080000000000 Cl
   0.2332110000000000    0.0310030000000000    0.3805079999999990 Cl
   0.8983289999999990    0.1174740000000000    0.6322190000000000 Cl
   0.1174740000000000    0.8983289999999990    0.1322190000000000 Cl
