Sb8 P12 Se36
1.0
   7.6037354300000004    0.0001814300000000    0.0010286900000000
   0.0002365200000000    9.5953583600000005   -0.0238145300000000
   0.0031579700000000    9.4579020800000002   21.4360667700000000
Sb P Se
8 12 36
direct
   0.7786321800000000    0.3908231600000000    0.8577327800000000 Sb
   0.2788382700000000    0.6092030200000000    0.6422565900000000 Sb
   0.2214139600000000    0.6093413900000000    0.1422293200000000 Sb
   0.7211689500000000    0.3908491800000000    0.3578012200000000 Sb
   0.9078564800000000    0.0539717200000000    0.1548252700000000 Sb
   0.4077296300000000    0.9460954900000000    0.3451543500000000 Sb
   0.0922259900000000    0.9460405600000000    0.8451284800000001 Sb
   0.5925679700000001    0.0542530100000000    0.6547254800000000 Sb
   0.9537544700000000    0.5761711100000000    0.9517370300000000 P
   0.4536696300000000    0.4238122800000000    0.5482090200000000 P
   0.0461878000000000    0.4240186600000000    0.0482679700000000 P
   0.5463140200000001    0.5761469500000000    0.4517487400000000 P
   0.0664791600000000    0.9225694200000000    0.6448250700000000 P
   0.5663469100000000    0.0774257500000000    0.8550357400000000 P
   0.9334370000000000    0.0772748300000000    0.3551882400000000 P
   0.4337390400000000    0.9226278100000000    0.1449506700000000 P
   0.1512900500000000    0.2473937900000000    0.3152648300000000 P
   0.6514941200000001    0.7523885300000001    0.1848213400000000 P
   0.8485417800000000    0.7525612300000000    0.6847751200000000 P
   0.3484252500000000    0.2476175900000000    0.8151867800000000 P
   0.7491355200000001    0.7744711000000000    0.7670069700000001 Se
   0.0383534500000000    0.4727733500000000    0.2990886000000000 Se
   0.4615864400000000    0.4730251500000000    0.7989564700000000 Se
   0.9615974200000000    0.5271589600000001    0.7010384600000000 Se
   0.8504062800000001    0.8405548200000000    0.1089207800000000 Se
   0.3502804600000000    0.1594063200000000    0.3910727000000000 Se
   0.1494763900000000    0.1594518600000000    0.8910394900000000 Se
   0.6497500400000000    0.8404788200000001    0.6089130300000000 Se
   0.2312091500000000    0.8535771500000000    0.2156428800000000 Se
   0.7309332300000000    0.1464299700000000    0.2844633800000000 Se
   0.7688659700000000    0.1465465900000000    0.7843021200000000 Se
   0.5384482100000000    0.5270399700000000    0.2009945000000000 Se
   0.5580697900000000    0.1452610000000000    0.1200743700000000 Se
   0.0578717800000000    0.8547398300000000    0.3800004300000000 Se
   0.4420059300000000    0.8547705100000000    0.8799486700000000 Se
   0.9420951600000000    0.1452578600000000    0.6199695800000000 Se
   0.3517776600000000    0.8735804500000001    0.0635519200000000 Se
   0.8513491999999990    0.1264505500000000    0.4365234400000000 Se
   0.6483410800000000    0.1264179800000000    0.9364431700000000 Se
   0.1485015100000000    0.8734694100000000    0.5635027200000000 Se
   0.5756587500000000    0.8009457999999990    0.4564976800000000 Se
   0.0757635300000000    0.1991001300000000    0.0435240600000000 Se
   0.4244066900000000    0.1990412700000000    0.5434309500000000 Se
   0.9242719300000001    0.8010325700000001    0.9564406000000000 Se
   0.3608116000000000    0.5691048100000000    0.3844239900000000 Se
   0.8608200200000000    0.4307108000000000    0.1157592900000000 Se
   0.6390077700000000    0.4303352200000000    0.6157014300000000 Se
   0.1392443300000000    0.5692493600000000    0.8843463500000001 Se
   0.8112600400000001    0.4812561900000000    0.4469875800000000 Se
   0.3111947800000000    0.5188142900000000    0.0530046999999990 Se
   0.1887893200000000    0.5187788500000000    0.5530398700000000 Se
   0.6888777600000000    0.4811624100000000    0.9470106600000000 Se
   0.2507949300000000    0.2254246700000000    0.2330359100000000 Se
   0.7508833700000000    0.7745089700000000    0.2670090400000000 Se
   0.2689285400000000    0.8536114300000001    0.7154806100000000 Se
   0.2491193300000000    0.2254731200000000    0.7329905800000001 Se
