K6 Sb2 S8
1.0
   7.7326460600000004    0.0000000000000000    0.0000000000000000
   0.0000000000000000    7.8114853499999999   -0.4626671500000000
   0.0000000000000000   -0.0525834400000000    7.8249978300000000
K Sb S
6 2 8
direct
   0.0198994800000000    0.3026822700000000    0.6973177300000000 K
   0.5198994800000000    0.6973177300000000    0.3026822700000000 K
   0.5130923400000000    0.1854471400000000    0.2554772999999990 K
   0.0130923400000000    0.8145528600000000    0.7445227000000000 K
   0.5130923400000000    0.7445227000000000    0.8145528600000000 K
   0.0130923400000000    0.2554772999999990    0.1854471400000000 K
   0.5184643500000000    0.2427759300000000    0.7572240700000000 Sb
   0.0184643500000000    0.7572240700000000    0.2427759300000000 Sb
   0.1573282200000000    0.5736766500000000    0.4263233500000000 S
   0.6573282200000000    0.4263233500000000    0.5736766500000000 S
   0.2266230600000000    0.9077494500000001    0.0922505500000000 S
   0.7266230600000000    0.0922505500000000    0.9077494500000001 S
   0.8446496000000000    0.9533072300000001    0.4052093600000000 S
   0.3446485999999990    0.0466927700000000    0.5947906400000000 S
   0.8446496000000000    0.5947906400000000    0.0466927700000000 S
   0.3446485999999990    0.4052093600000000    0.9533072300000001 S
