K4 Sn6 Sb4 S20
1.0
  13.5093180000000004    0.0000000000000000    0.0000000000000000
   0.0000000000000000    6.9135479999999996    0.0000000000000000
   0.0000000000000000    5.4882720000000003   10.5227100000000000
K Sn Sb S
4 6 4 20
direct
   0.3264740000000000    0.4457450000000000    0.1726879999999990 K
   0.1735259999999990    0.4457450000000000    0.6726880000000000 K
   0.6735260000000000    0.5542549999999991    0.8273119999999990 K
   0.8264739999999990    0.5542549999999991    0.3273120000000000 K
   0.0000000000000000    0.5000000000000000    0.0000000000000000 Sn
   0.5000000000000000    0.5000000000000000    0.5000000000000000 Sn
   0.0529360000000000    0.1151690000000000    0.3459569999999990 Sn
   0.4470639999999990    0.1151690000000000    0.8459570000000000 Sn
   0.9470639999999991    0.8848309999999990    0.6540429999999990 Sn
   0.5529360000000000    0.8848309999999990    0.1540429999999990 Sn
   0.1523650000000000    0.0111510000000000    0.0910410000000000 Sb
   0.3476349999999990    0.0111510000000000    0.5910409999999990 Sb
   0.8476349999999990    0.9888490000000000    0.9089590000000000 Sb
   0.6523650000000000    0.9888490000000000    0.4089589999999990 Sb
   0.1788950000000000    0.4093110000000000    0.9657700000000001 S
   0.3211050000000000    0.4093110000000000    0.4657700000000000 S
   0.8211050000000000    0.5906890000000000    0.0342300000000000 S
   0.6788949999999990    0.5906890000000000    0.5342300000000001 S
   0.9760089999999991    0.0763490000000000    0.1281320000000000 S
   0.5239910000000000    0.0763490000000000    0.6281320000000000 S
   0.0239910000000000    0.9236510000000000    0.8718680000000000 S
   0.4760089999999990    0.9236510000000000    0.3718680000000000 S
   0.9509069999999999    0.4946370000000000    0.7882469999999990 S
   0.5490929999999991    0.4946370000000000    0.2882470000000000 S
   0.0490930000000000    0.5053630000000000    0.2117530000000000 S
   0.4509070000000000    0.5053630000000000    0.7117530000000000 S
   0.2009900000000000    0.9501039999999999    0.3114830000000000 S
   0.2990100000000000    0.9501039999999999    0.8114830000000000 S
   0.7990100000000001    0.0498959999999990    0.6885169999999990 S
   0.7009900000000000    0.0498959999999990    0.1885170000000000 S
   0.9002570000000000    0.9128680000000000    0.4407540000000000 S
   0.5997430000000000    0.9128680000000000    0.9407540000000000 S
   0.0997430000000000    0.0871320000000000    0.5592460000000000 S
   0.4002570000000000    0.0871320000000000    0.0592460000000000 S
