Li12 Sb4 S12
1.0
  14.9207300000000007    0.0000000000000000    0.0000000000000000
   0.0000000000000000    6.2162949999999997    0.0000000000000000
   0.0000000000000000    5.4286209999999997    6.5830070000000003
Li Sb S
12 4 12
direct
   0.6460410000000000    0.6507390000000000    0.5263970000000000 Li
   0.4253630000000000    0.9578749999999990    0.1529640000000000 Li
   0.9253629999999990    0.0421249999999990    0.3470360000000000 Li
   0.1460410000000000    0.3492610000000000    0.9736030000000000 Li
   0.7376960000000000    0.0162290000000000    0.1042179999999990 Li
   0.2376960000000000    0.9837710000000000    0.3957819999999990 Li
   0.7623040000000000    0.0162290000000000    0.6042179999999990 Li
   0.2623040000000000    0.9837710000000000    0.8957820000000000 Li
   0.8539589999999990    0.6507390000000000    0.0263970000000000 Li
   0.0746370000000000    0.9578749999999990    0.6529640000000000 Li
   0.5746370000000000    0.0421249999999990    0.8470360000000000 Li
   0.3539589999999990    0.3492610000000000    0.4736030000000000 Li
   0.9029530000000000    0.3109830000000000    0.7643880000000000 Sb
   0.4029530000000000    0.6890170000000000    0.7356119999999990 Sb
   0.5970470000000000    0.3109830000000000    0.2643880000000000 Sb
   0.0970470000000000    0.6890170000000000    0.2356120000000000 Sb
   0.8981929999999990    0.9105820000000000    0.1316860000000000 S
   0.2620389999999990    0.7422789999999990    0.2569570000000000 S
   0.4162960000000000    0.2555440000000000    0.7731660000000000 S
   0.7620389999999990    0.2577210000000000    0.2430429999999990 S
   0.9162960000000000    0.7444560000000000    0.7268340000000000 S
   0.3981929999999990    0.0894180000000000    0.3683140000000000 S
   0.6018070000000000    0.9105820000000000    0.6316860000000000 S
   0.0837040000000000    0.2555440000000000    0.2731659999999990 S
   0.2379609999999990    0.7422789999999990    0.7569570000000000 S
   0.5837040000000000    0.7444560000000000    0.2268339999999990 S
   0.7379610000000000    0.2577210000000000    0.7430430000000000 S
   0.1018070000000000    0.0894180000000000    0.8683139999999990 S
