Cu12 Sb4 S12
1.0
   6.5414630000000002    0.0000000000000000    0.0000000000000000
   0.0000000000000000    8.0990590000000005    0.0000000000000000
   0.0000000000000000    0.0000000000000000   10.2686440000000001
Cu Sb S
12 4 12
direct
   0.9875870000000000    0.0761950000000000    0.4666420000000000 Cu
   0.4875870000000000    0.4238050000000000    0.5333580000000000 Cu
   0.5124130000000000    0.9238050000000000    0.9666420000000000 Cu
   0.0124129999999990    0.5761950000000000    0.0333580000000000 Cu
   0.1299550000000000    0.3677959999999990    0.4122770000000000 Cu
   0.6299549999999990    0.1322040000000000    0.5877230000000000 Cu
   0.8700450000000000    0.8677960000000000    0.0877230000000000 Cu
   0.3700449999999990    0.6322040000000000    0.9122770000000000 Cu
   0.0545309999999990    0.1691089999999990    0.0944410000000000 Cu
   0.5545310000000000    0.3308910000000000    0.9055590000000000 Cu
   0.9454690000000000    0.6691090000000000    0.4055590000000000 Cu
   0.4454690000000000    0.8308909999999990    0.5944410000000000 Cu
   0.8862890000000000    0.7252910000000000    0.7360209999999990 Sb
   0.3862890000000000    0.7747090000000000    0.2639789999999990 Sb
   0.1137109999999990    0.2252910000000000    0.7639790000000000 Sb
   0.6137110000000000    0.2747090000000000    0.2360209999999990 Sb
   0.6020869999999990    0.6819520000000000    0.0737729999999990 S
   0.1020870000000000    0.8180480000000000    0.9262269999999990 S
   0.8979130000000000    0.3180480000000000    0.5737730000000000 S
   0.3979129999999990    0.1819520000000000    0.4262269999999990 S
   0.8748330000000000    0.0497270000000000    0.2548180000000000 S
   0.3748329999999990    0.4502730000000000    0.7451820000000000 S
   0.1251670000000000    0.5497270000000000    0.2451819999999990 S
   0.6251669999999990    0.9502729999999990    0.7548180000000000 S
   0.3977210000000000    0.1616979999999990    0.0545280000000000 S
   0.8977210000000000    0.3383020000000000    0.9454720000000000 S
   0.6022790000000000    0.6616980000000000    0.4454720000000000 S
   0.1022790000000000    0.8383020000000000    0.5545280000000000 S
