K3 Mg1 Sb1 S4
1.0
   6.2286711700000001   -1.4046299000000000   -3.0623243300000000
  -3.9378215499999998    6.8205065899999999   -1.9508660400000000
  -0.3929598400000000    0.6806263600000000    8.0755147699999998
K Mg Sb S
3 1 1 4
direct
   1.0000000000000000    0.3642909800000000    0.3642909800000000 K
   0.5000000000000000    0.0730242200000000    0.5730242200000000 K
   0.5000000000000000    0.5730242200000000    0.0730242200000000 K
   1.0000000000000000    0.7243709400000000    0.7243709400000000 Mg
   1.0000000000000000    0.0338701900000000    0.0338701900000000 Sb
   1.0000000000000000    0.0365261500000000    0.7304133500000000 S
   0.0000000000000000    0.7304133500000000    0.0365261500000000 S
   0.4186182300000000    0.7980305900000000    0.7980305900000000 S
   0.5813817700000000    0.3794123700000000    0.3794123700000000 S
