Na6 As2 H28 S2 O20
1.0
  12.7421430000000004    0.0000000000000000    0.0000000000000000
   0.0000000000000000    6.7747359999999999    0.0000000000000000
   0.0000000000000000    0.5123390000000000    7.0875870000000001
Na As H S O
6 2 28 2 20
direct
   0.2386900000000000    0.1995800000000000    0.7997960000000000 Na
   0.7386900000000001    0.8004200000000000    0.2002040000000000 Na
   0.1317880000000000    0.2029790000000000    0.3261460000000000 Na
   0.6317880000000000    0.7970210000000000    0.6738540000000000 Na
   0.4939759999999990    0.2232710000000000    0.6774190000000000 Na
   0.9939760000000000    0.7767290000000000    0.3225810000000000 Na
   0.8510770000000000    0.1995000000000000    0.8069139999999990 As
   0.3510770000000000    0.8005000000000000    0.1930859999999990 As
   0.7774789999999990    0.3552639999999990    0.4157990000000000 H
   0.2774790000000000    0.6447360000000000    0.5842010000000000 H
   0.6703800000000001    0.3599920000000000    0.3027240000000000 H
   0.1703800000000000    0.6400080000000000    0.6972760000000000 H
   0.4041840000000000    0.2002439999999990    0.0542620000000000 H
   0.9041840000000000    0.7997559999999990    0.9457380000000000 H
   0.3936290000000000    0.4318900000000001    0.9793529999999990 H
   0.8936290000000000    0.5681100000000000    0.0206470000000000 H
   0.9128959999999990    0.1706740000000000    0.4065350000000000 H
   0.4128960000000000    0.8293260000000000    0.5934650000000000 H
   0.9261220000000000    0.1891250000000000    0.1836420000000000 H
   0.4261220000000000    0.8108750000000000    0.8163579999999990 H
   0.9721879999999991    0.4203520000000000    0.5366370000000000 H
   0.4721880000000000    0.5796479999999991    0.4633629999999990 H
   0.0890629999999990    0.4734900000000000    0.5884440000000000 H
   0.5890630000000000    0.5265100000000000    0.4115560000000000 H
   0.3297020000000000    0.3979010000000000    0.4274280000000000 H
   0.8297019999999991    0.6020989999999991    0.5725720000000000 H
   0.0466260000000000    0.3625680000000000    0.9812300000000000 H
   0.5466259999999999    0.6374320000000000    0.0187700000000000 H
   0.1442940000000000    0.5097809999999990    0.0143360000000000 H
   0.6442939999999990    0.4902189999999990    0.9856640000000000 H
   0.0332110000000000    0.9934609999999990    0.6882090000000000 H
   0.5332110000000000    0.0065390000000000    0.3117910000000000 H
   0.1473970000000000    0.8952519999999990    0.6900000000000001 H
   0.6473970000000000    0.1047480000000000    0.3100000000000000 H
   0.3460479999999990    0.1716840000000000    0.3799909999999990 H
   0.8460479999999990    0.8283159999999991    0.6200089999999990 H
   0.6911030000000000    0.1393650000000000    0.8904940000000000 S
   0.1911030000000000    0.8606349999999990    0.1095059999999990 S
   0.9195409999999991    0.3206509999999990    0.9727560000000000 O
   0.4195410000000000    0.6793490000000000    0.0272439999999990 O
   0.9148649999999990    0.9788439999999990    0.7673390000000000 O
   0.4148650000000000    0.0211559999999990    0.2326609999999990 O
   0.8591059999999990    0.3463610000000000    0.5944360000000000 O
   0.3591060000000000    0.6536390000000000    0.4055640000000000 O
   0.7450220000000000    0.3861880000000000    0.2883230000000000 O
   0.2450220000000000    0.6138120000000000    0.7116770000000000 O
   0.3948390000000000    0.2936630000000000    0.9393530000000000 O
   0.8948389999999991    0.7063370000000000    0.0606470000000000 O
   0.9462330000000000    0.1068400000000000    0.3019259999999990 O
   0.4462330000000000    0.8931600000000001    0.6980740000000000 O
   0.0411700000000000    0.4759460000000000    0.4808400000000000 O
   0.5411700000000000    0.5240540000000000    0.5191600000000001 O
   0.3089040000000000    0.2590280000000000    0.4666789999999990 O
   0.8089040000000000    0.7409720000000000    0.5333209999999990 O
   0.1253169999999990    0.3718400000000000    0.9963580000000000 O
   0.6253170000000000    0.6281600000000001    0.0036420000000000 O
   0.1053510000000000    0.9993679999999990    0.6246510000000000 O
   0.6053510000000000    0.0006320000000000    0.3753490000000000 O
