Sb4 H12 S4 O24
1.0
  13.5242559999999994    0.0000000000000000    0.0000000000000000
   0.0000000000000000    6.1088680000000002    0.0000000000000000
   0.0000000000000000    3.1921149999999998    6.0285440000000001
Sb H S O
4 12 4 24
direct
   0.3864249999999990    0.9482919999999990    0.4020040000000000 Sb
   0.8864249999999990    0.0517080000000000    0.0979960000000000 Sb
   0.6135750000000000    0.0517080000000000    0.5979960000000000 Sb
   0.1135750000000000    0.9482919999999990    0.9020039999999990 Sb
   0.5720419999999991    0.7722540000000000    0.3719520000000000 H
   0.0720420000000000    0.2277459999999990    0.1280480000000000 H
   0.4279580000000000    0.2277459999999990    0.6280490000000000 H
   0.9279579999999999    0.7722540000000000    0.8719509999999990 H
   0.4720530000000000    0.6793620000000000    0.1883350000000000 H
   0.9720529999999999    0.3206380000000000    0.3116649999999990 H
   0.5279469999999991    0.3206380000000000    0.8116650000000000 H
   0.0279470000000000    0.6793620000000000    0.6883349999999990 H
   0.3645810000000000    0.7405170000000000    0.0776200000000000 H
   0.8645809999999990    0.2594829999999990    0.4223800000000000 H
   0.6354190000000000    0.2594829999999990    0.9223800000000001 H
   0.1354189999999990    0.7405170000000000    0.5776200000000000 H
   0.8408990000000000    0.5995490000000000    0.5757329999999991 S
   0.3408990000000000    0.4004510000000000    0.9242669999999999 S
   0.1591010000000000    0.4004510000000000    0.4242670000000000 S
   0.6591009999999990    0.5995490000000000    0.0757330000000000 S
   0.9142119999999990    0.7070679999999990    0.3759849999999990 O
   0.4142119999999990    0.2929319999999990    0.1240150000000000 O
   0.0857879999999990    0.2929319999999990    0.6240150000000000 O
   0.5857880000000000    0.7070679999999990    0.8759850000000000 O
   0.7604210000000000    0.7777259999999990    0.5258200000000001 O
   0.2604210000000000    0.2222740000000000    0.9741800000000000 O
   0.2395790000000000    0.2222740000000000    0.4741800000000000 O
   0.7395790000000000    0.7777259999999990    0.0258200000000000 O
   0.9003559999999990    0.5648270000000000    0.7741669999999991 O
   0.4003560000000000    0.4351730000000000    0.7258330000000000 O
   0.0996440000000000    0.4351730000000000    0.2258329999999990 O
   0.5996440000000000    0.5648270000000000    0.2741670000000000 O
   0.8090410000000000    0.3560129999999990    0.6030960000000000 O
   0.3090410000000000    0.6439870000000000    0.8969039999999990 O
   0.1909590000000000    0.6439870000000000    0.3969040000000000 O
   0.6909590000000000    0.3560129999999990    0.1030960000000000 O
   0.5380140000000000    0.8762280000000000    0.4286169999999990 O
   0.0380140000000000    0.1237720000000000    0.0713830000000000 O
   0.4619859999999990    0.1237720000000000    0.5713830000000000 O
   0.9619860000000000    0.8762280000000000    0.9286169999999990 O
   0.4123250000000000    0.7813120000000000    0.1665900000000000 O
   0.9123249999999991    0.2186880000000000    0.3334100000000000 O
   0.5876749999999999    0.2186880000000000    0.8334100000000001 O
   0.0876750000000000    0.7813120000000000    0.6665900000000000 O
