Bi4 Te4 W6 O32
1.0
   2.8085930000000001   10.8946059999999996    0.0000000000000000
  -2.8085930000000001   10.8946059999999996    0.0000000000000000
   0.0000000000000000    7.3493570000000004   10.8276140000000005
Bi Te W O
4 4 6 32
direct
   0.1093970000000000    0.4449559999999990    0.8432870000000000 Bi
   0.4449559999999990    0.1093970000000000    0.3432870000000000 Bi
   0.5550440000000000    0.8906029999999990    0.6567130000000000 Bi
   0.8906029999999990    0.5550440000000000    0.1567130000000000 Bi
   0.9002190000000000    0.2908420000000000    0.8438880000000000 Te
   0.0997810000000000    0.7091580000000000    0.1561120000000000 Te
   0.7091580000000000    0.0997810000000000    0.6561119999999990 Te
   0.2908420000000000    0.9002190000000000    0.3438879999999990 Te
   0.2378190000000000    0.5100880000000000    0.4623569999999990 W
   0.7621810000000000    0.4899119999999990    0.5376430000000000 W
   0.4899119999999990    0.7621810000000000    0.0376429999999990 W
   0.1290780000000000    0.8709220000000000    0.7500000000000000 W
   0.5100880000000000    0.2378190000000000    0.9623569999999991 W
   0.8709220000000000    0.1290780000000000    0.2500000000000000 W
   0.8056650000000000    0.1110420000000000    0.8764890000000000 O
   0.6825639999999999    0.5690940000000000    0.4000600000000000 O
   0.8889579999999990    0.1943349999999990    0.6235109999999990 O
   0.7041539999999999    0.9072469999999990    0.7218690000000000 O
   0.9072469999999990    0.7041539999999999    0.2218689999999990 O
   0.3959840000000000    0.7000870000000000    0.6242480000000000 O
   0.4173759999999990    0.1893590000000000    0.4922590000000000 O
   0.1893590000000000    0.4173759999999990    0.9922590000000000 O
   0.0001540000000000    0.8275779999999990    0.7401820000000000 O
   0.3174360000000000    0.4309059999999990    0.5999400000000000 O
   0.6779200000000001    0.9339330000000000    0.0296549999999990 O
   0.2999130000000000    0.6040160000000000    0.8757520000000000 O
   0.3220800000000000    0.0660670000000000    0.9703449999999991 O
   0.5826239999999990    0.8106409999999999    0.5077410000000000 O
   0.2958460000000000    0.0927530000000000    0.2781309999999990 O
   0.4309059999999990    0.3174360000000000    0.0999400000000000 O
   0.0660670000000000    0.3220800000000000    0.4703449999999990 O
   0.5089290000000000    0.7329780000000000    0.2046740000000000 O
   0.7000870000000000    0.3959840000000000    0.1242480000000000 O
   0.0927530000000000    0.2958460000000000    0.7781310000000000 O
   0.1110420000000000    0.8056650000000000    0.3764889999999990 O
   0.5690940000000000    0.6825639999999999    0.9000600000000001 O
   0.6040160000000000    0.2999130000000000    0.3757520000000000 O
   0.2670220000000000    0.4910710000000000    0.2953260000000000 O
   0.8106409999999999    0.5826239999999990    0.0077410000000000 O
   0.7329780000000000    0.5089290000000000    0.7046740000000000 O
   0.1724220000000000    0.9998459999999991    0.7598180000000000 O
   0.1943349999999990    0.8889579999999990    0.1235110000000000 O
   0.4910710000000000    0.2670220000000000    0.7953260000000000 O
   0.9339330000000000    0.6779200000000001    0.5296550000000000 O
   0.9998459999999991    0.1724220000000000    0.2598180000000000 O
   0.8275779999999990    0.0001540000000000    0.2401819999999990 O
