K12 As4 S16
1.0
   9.1370258900000003    0.0000000000000000    0.0000000000000000
   0.0000000000000000    9.3710300899999996    0.0000000000000000
   0.0000000000000000    0.0000000000000000   10.6238479599999991
K As S
12 4 16
direct
   0.9414404200000001    0.7001854000000000    0.0074855300000000 K
   0.0585595800000000    0.2998146000000000    0.5074855300000000 K
   0.5585595800000001    0.2001853999999990    0.5074855300000000 K
   0.4414404200000000    0.7998145999999990    0.0074855300000000 K
   0.9406347600000000    0.7019468900000000    0.4188976200000000 K
   0.0593652400000000    0.2980531100000000    0.9188976200000000 K
   0.5593652400000000    0.2019468900000000    0.9188976200000000 K
   0.4406347600000000    0.7980531100000000    0.4188976200000000 K
   0.6396462200000000    0.4208092200000000    0.2146091900000000 K
   0.3603537800000000    0.5791907800000000    0.7146091900000000 K
   0.8603537800000001    0.9208092200000000    0.7146091900000000 K
   0.1396462200000000    0.0791907800000000    0.2146091900000000 K
   0.7211790500000000    0.9800658700000000    0.2128918800000000 As
   0.2788209500000000    0.0199341300000000    0.7128918800000000 As
   0.7788209500000001    0.4800658700000000    0.7128918800000000 As
   0.2211790500000000    0.5199341300000000    0.2128918800000000 As
   0.6871109600000000    0.7506903900000000    0.2130817300000000 S
   0.3128890400000000    0.2493096100000000    0.7130817300000000 S
   0.8128890400000001    0.2506903900000000    0.7130817300000000 S
   0.1871109600000000    0.7493096100000001    0.2130817300000000 S
   0.8408782900000000    0.0362773500000000    0.0441446800000000 S
   0.1591217100000000    0.9637226500000000    0.5441446800000000 S
   0.6591217100000000    0.5362773500000000    0.5441446800000000 S
   0.3408782900000000    0.4637226500000000    0.0441446800000000 S
   0.5093910800000000    0.0878436000000000    0.2124392300000000 S
   0.4906089200000000    0.9121564000000000    0.7124392300000000 S
   0.9906089200000000    0.5878436000000000    0.7124392300000000 S
   0.0093910800000000    0.4121564000000000    0.2124392300000000 S
   0.8401598700000000    0.0371227600000000    0.3818501500000000 S
   0.1598401300000000    0.9628772400000000    0.8818501500000000 S
   0.6598401300000000    0.5371227600000000    0.8818501500000000 S
   0.3401598700000000    0.4628772400000000    0.3818501500000000 S
