Ag12 As4 S12
1.0
   3.1770049800000000    6.0107516299999997   -0.0079294900000000
  -3.1770049800000000    6.0107516299999997   -0.0079294900000000
  -0.0000000000000000    5.8373426600000000   15.9434058400000005
Ag As S
12 4 12
direct
   0.8981405800000000    0.8335500200000000    0.2147736500000000 Ag
   0.1664499800000000    0.1018594200000000    0.2852263500000000 Ag
   0.6837204700000000    0.5968054200000000    0.1340933500000000 Ag
   0.3162795300000000    0.4031945800000000    0.8659066500000000 Ag
   0.0156693900000000    0.8532085100000000    0.9384825800000001 Ag
   0.8532085100000000    0.0156693900000000    0.4384825800000000 Ag
   0.1018594200000000    0.1664499800000000    0.7852263500000000 Ag
   0.1467914900000000    0.9843306100000000    0.5615174200000000 Ag
   0.4031945800000000    0.3162795300000000    0.3659066500000000 Ag
   0.9843306100000000    0.1467914900000000    0.0615174200000000 Ag
   0.8335500200000000    0.8981405800000000    0.7147736500000000 Ag
   0.5968054200000000    0.6837204700000000    0.6340933500000000 Ag
   0.4099864300000000    0.2981198400000000    0.0724335700000000 As
   0.7018801600000000    0.5900135700000000    0.4275664300000000 As
   0.2981198400000000    0.4099864300000000    0.5724335700000001 As
   0.5900135700000000    0.7018801600000000    0.9275664300000001 As
   0.3501725000000000    0.9613867900000000    0.4134976999999990 S
   0.5693674000000000    0.2827011000000000    0.1747706400000000 S
   0.9818297400000000    0.6927691400000000    0.3593229500000000 S
   0.3072308600000000    0.0181702600000000    0.1406770500000000 S
   0.7172989000000000    0.4306326000000000    0.3252293600000000 S
   0.0181702600000000    0.3072308600000000    0.6406770500000000 S
   0.6927691400000000    0.9818297400000000    0.8593229500000000 S
   0.4306326000000000    0.7172989000000000    0.8252293600000000 S
   0.9613867900000000    0.3501725000000000    0.9134977000000000 S
   0.0386132100000000    0.6498275000000000    0.0865022999999990 S
   0.6498275000000000    0.0386132100000000    0.5865022999999990 S
   0.2827011000000000    0.5693674000000000    0.6747706400000000 S
