Na3 Mg1 Sb1 S4
1.0
   6.3079267899999998    1.2279622100000001   -2.9821591500000002
  -2.0905163500000001    6.0768060500000001   -2.9821591500000002
  -0.7089643900000000   -1.2279621700000001    6.9412234799999997
Na Mg Sb S
3 1 1 4
direct
   0.5000000000000000    0.5000000000000000   -0.0000000000000000 Na
   0.9203991300000001    0.4203991300000000    0.5000000000000000 Na
   0.5796008700000000    0.0796008700000000    0.5000000000000000 Na
   0.2500000000000000    0.7500000000000000    0.5000000000000000 Mg
  -0.0000000000000000    0.0000000000000000   -0.0000000000000000 Sb
   0.9127222400000000    0.8385689700000000    0.5172960999999990 S
   0.3212728700000000    0.3954261400000000    0.4827038999999990 S
   0.6045738600000000    0.0872777600000000    0.9258467300000001 S
   0.1614310300000000    0.6787271300000001    0.0741532700000000 S
