Cs3 Ag9 Sb4 S12
1.0
  -5.6323910000000001    5.6323910000000001    6.0181139999999997
   5.6323910000000001   -5.6323910000000001    6.0181139999999997
   5.6323910000000001    5.6323910000000001   -6.0181139999999997
Cs Ag Sb S
3 9 4 12
direct
   0.0000000000000000    0.0000000000000000    0.0000000000000000 Cs
   0.3261570000000000    0.3261570000000000    0.0000000000000000 Cs
   0.6738430000000000    0.6738430000000000    0.0000000000000000 Cs
   0.2500000000000000    0.7500000000000000    0.5000000000000000 Ag
   0.3320369999999990    0.4863380000000000    0.4886500000000000 Ag
   0.9976879999999991    0.8433870000000000    0.5113500000000001 Ag
   0.4990639999999991    0.0093840000000000    0.1686109999999990 Ag
   0.8407730000000000    0.3304539999999990    0.8313889999999990 Ag
   0.6695460000000000    0.5009359999999990    0.5103200000000000 Ag
   0.9906159999999991    0.1592269999999990    0.4896800000000001 Ag
   0.5136620000000000    0.0023120000000000    0.8456990000000000 Ag
   0.1566130000000000    0.6679630000000000    0.1543010000000000 Ag
   0.1254790000000000    0.6072240000000000    0.7435550000000000 Sb
   0.8636689999999990    0.3819240000000000    0.2564450000000000 Sb
   0.6180760000000000    0.8745210000000000    0.4817450000000000 Sb
   0.3927759999999990    0.1363309999999990    0.5182550000000000 Sb
   0.6698320000000000    0.3040460000000000    0.9696220000000000 S
   0.3344240000000000    0.7002100000000001    0.0303780000000000 S
   0.2997900000000000    0.3301679999999990    0.6342139999999991 S
   0.6959540000000000    0.6655759999999999    0.3657860000000000 S
   0.4249960000000000    0.2161020000000000    0.3202419999999990 S
   0.8958600000000001    0.1047540000000000    0.6797580000000000 S
   0.2148570000000000    0.8841749999999990    0.7795839999999991 S
   0.1045919999999990    0.4352740000000000    0.2204160000000000 S
   0.5647260000000000    0.7851429999999990    0.6693180000000000 S
   0.1158250000000000    0.8954080000000000    0.3306820000000000 S
   0.7838980000000000    0.1041400000000000    0.2088950000000000 S
   0.8952460000000000    0.5750040000000000    0.7911049999999999 S
