Cu12 Sb4 Se12
1.0
   6.9162010000000000    0.0000000000000000    0.0000000000000000
   0.0000000000000000    8.0467259999999996    0.0000000000000000
   0.0000000000000000    0.0000000000000000   10.5843369999999997
Cu Sb Se
12 4 12
direct
   0.0661360000000000    0.6918270000000000    0.2500000000000000 Cu
   0.5661360000000000    0.8081729999999990    0.7500000000000000 Cu
   0.9338639999999990    0.3081730000000000    0.7500000000000000 Cu
   0.4338639999999990    0.1918270000000000    0.2500000000000000 Cu
   0.2534949999999990    0.0994540000000000    0.0461470000000000 Cu
   0.7534949999999990    0.4005459999999990    0.9538530000000000 Cu
   0.2465050000000000    0.5994539999999990    0.4538530000000000 Cu
   0.7465050000000000    0.9005460000000000    0.5461469999999990 Cu
   0.7465050000000000    0.9005460000000000    0.9538530000000000 Cu
   0.2465050000000000    0.5994539999999990    0.0461470000000000 Cu
   0.7534949999999990    0.4005459999999990    0.5461469999999990 Cu
   0.2534949999999990    0.0994540000000000    0.4538530000000000 Cu
   0.1091289999999990    0.7554400000000001    0.7500000000000000 Sb
   0.6091289999999990    0.7445600000000001    0.2500000000000000 Sb
   0.3908709999999990    0.2554400000000000    0.7500000000000000 Sb
   0.8908710000000000    0.2445600000000000    0.2500000000000000 Sb
   0.3488270000000000    0.8439789999999990    0.9375319999999990 Se
   0.8488270000000000    0.6560210000000000    0.0624679999999990 Se
   0.6511730000000000    0.1560210000000000    0.4375320000000000 Se
   0.1511730000000000    0.3439790000000000    0.5624680000000000 Se
   0.1410000000000000    0.9983289999999990    0.2500000000000000 Se
   0.6410000000000000    0.5016710000000000    0.7500000000000000 Se
   0.3590000000000000    0.4983289999999990    0.2500000000000000 Se
   0.8590000000000000    0.0016710000000000    0.7500000000000000 Se
   0.6511730000000000    0.1560210000000000    0.0624679999999990 Se
   0.1511730000000000    0.3439790000000000    0.9375319999999990 Se
   0.8488270000000000    0.6560210000000000    0.4375320000000000 Se
   0.3488270000000000    0.8439789999999990    0.5624680000000000 Se
