Zn4 As8 S16 O32 F48
1.0
  14.0480570000000000    0.0000000000000000    0.0000000000000000
   0.0000000000000000    8.8202949999999998    0.0000000000000000
   0.0000000000000000    2.3554050000000002   15.1608760000000000
Zn As S O F
4 8 16 32 48
direct
   0.1869880000000000    0.2255250000000000    0.7578990000000000 Zn
   0.6869879999999990    0.7744749999999990    0.7421010000000000 Zn
   0.8130120000000000    0.7744749999999990    0.2421009999999990 Zn
   0.3130120000000000    0.2255250000000000    0.2578990000000000 Zn
   0.3528690000000000    0.0370259999999990    0.6090930000000000 As
   0.8528690000000000    0.9629740000000000    0.8909070000000000 As
   0.6471310000000000    0.9629740000000000    0.3909070000000000 As
   0.1471309999999990    0.0370259999999990    0.1090930000000000 As
   0.3861800000000000    0.4107570000000000    0.8687900000000001 As
   0.8861800000000001    0.5892430000000000    0.6312100000000000 As
   0.6138200000000000    0.5892430000000000    0.1312100000000000 As
   0.1138200000000000    0.4107570000000000    0.3687900000000000 As
   0.0251650000000000    0.3749429999999990    0.8940269999999990 S
   0.5251650000000000    0.6250570000000000    0.6059730000000000 S
   0.9748350000000000    0.6250570000000000    0.1059730000000000 S
   0.4748349999999991    0.3749429999999990    0.3940269999999990 S
   0.0310839999999990    0.0917870000000000    0.6037250000000000 S
   0.5310840000000000    0.9082129999999990    0.8962749999999990 S
   0.9689160000000000    0.9082129999999990    0.3962750000000000 S
   0.4689160000000000    0.0917870000000000    0.1037250000000000 S
   0.1720440000000000    0.8454780000000000    0.8421890000000000 S
   0.6720440000000000    0.1545220000000000    0.6578109999999990 S
   0.8279559999999990    0.1545220000000000    0.1578109999999990 S
   0.3279559999999990    0.8454780000000000    0.3421889999999990 S
   0.2008859999999990    0.5751990000000000    0.6120880000000000 S
   0.7008860000000000    0.4248010000000000    0.8879119999999990 S
   0.7991140000000000    0.4248010000000000    0.3879120000000000 S
   0.2991140000000000    0.5751990000000000    0.1120880000000000 S
   0.0741990000000000    0.2856200000000000    0.8347070000000000 O
   0.5741990000000000    0.7143800000000000    0.6652930000000000 O
   0.9258010000000000    0.7143800000000000    0.1652930000000000 O
   0.4258010000000000    0.2856200000000000    0.3347070000000000 O
   0.0680400000000000    0.5177020000000000    0.9076130000000000 O
   0.5680400000000001    0.4822980000000000    0.5923870000000000 O
   0.9319600000000001    0.4822980000000000    0.0923870000000000 O
   0.4319600000000000    0.5177020000000000    0.4076130000000000 O
   0.0766430000000000    0.1561110000000000    0.6756789999999990 O
   0.5766430000000000    0.8438890000000000    0.8243210000000000 O
   0.9233570000000000    0.8438890000000000    0.3243209999999990 O
   0.4233570000000000    0.1561110000000000    0.1756790000000000 O
   0.9317409999999990    0.1261910000000000    0.5892100000000000 O
   0.4317410000000000    0.8738089999999999    0.9107900000000001 O
   0.0682590000000000    0.8738089999999999    0.4107900000000000 O
   0.5682590000000000    0.1261910000000000    0.0892100000000000 O
   0.1891120000000000    0.0104580000000000    0.8380280000000000 O
   0.6891119999999999    0.9895419999999990    0.6619720000000000 O
   0.8108879999999991    0.9895419999999990    0.1619720000000000 O
   0.3108880000000000    0.0104580000000000    0.3380280000000000 O
   0.1427600000000000    0.7934890000000000    0.7617609999999990 O
   0.6427600000000000    0.2065110000000000    0.7382390000000000 O
   0.8572400000000001    0.2065110000000000    0.2382389999999990 O
   0.3572400000000000    0.7934890000000000    0.2617609999999990 O
   0.1844249999999990    0.4440909999999990    0.6814669999999990 O
   0.6844250000000000    0.5559090000000000    0.8185330000000000 O
   0.8155749999999991    0.5559090000000000    0.3185330000000000 O
   0.3155750000000000    0.4440909999999990    0.1814670000000000 O
   0.2917050000000000    0.5850540000000000    0.5686209999999990 O
   0.7917050000000000    0.4149460000000000    0.9313790000000000 O
   0.7082950000000000    0.4149460000000000    0.4313789999999990 O
   0.2082949999999990    0.5850540000000000    0.0686210000000000 O
   0.2949790000000000    0.1577009999999990    0.6832050000000000 F
   0.7949790000000000    0.8422989999999990    0.8167949999999990 F
   0.7050210000000000    0.8422989999999990    0.3167950000000000 F
   0.2050209999999990    0.1577009999999990    0.1832049999999990 F
   0.4066090000000000    0.9232039999999990    0.5386029999999991 F
   0.9066090000000000    0.0767960000000000    0.9613969999999999 F
   0.5933910000000000    0.0767960000000000    0.4613970000000000 F
   0.0933910000000000    0.9232039999999990    0.0386030000000000 F
   0.3562440000000000    0.2017110000000000    0.5278510000000000 F
   0.8562440000000000    0.7982889999999990    0.9721489999999990 F
   0.6437560000000000    0.7982889999999990    0.4721490000000000 F
   0.1437560000000000    0.2017110000000000    0.0278509999999990 F
   0.2379619999999990    0.9924160000000000    0.5740050000000000 F
   0.7379620000000000    0.0075840000000000    0.9259950000000000 F
   0.7620380000000000    0.0075840000000000    0.4259949999999990 F
   0.2620380000000000    0.9924160000000000    0.0740050000000000 F
   0.3465260000000000    0.8816539999999990    0.6961790000000000 F
   0.8465260000000000    0.1183459999999990    0.8038210000000000 F
   0.6534740000000000    0.1183459999999990    0.3038210000000000 F
   0.1534740000000000    0.8816539999999990    0.1961790000000000 F
   0.4634560000000000    0.0899050000000000    0.6499140000000000 F
   0.9634560000000000    0.9100950000000000    0.8500860000000000 F
   0.5365440000000000    0.9100950000000000    0.3500860000000000 F
   0.0365440000000000    0.0899050000000000    0.1499140000000000 F
   0.2846400000000000    0.2899950000000000    0.8454980000000000 F
   0.7846400000000001    0.7100050000000000    0.6545019999999990 F
   0.7153600000000001    0.7100050000000000    0.1545020000000000 F
   0.2153600000000000    0.2899950000000000    0.3454979999999990 F
   0.4826830000000000    0.5245370000000000    0.8914420000000000 F
   0.9826830000000000    0.4754629999999990    0.6085579999999990 F
   0.5173170000000000    0.4754629999999990    0.1085580000000000 F
   0.0173170000000000    0.5245370000000000    0.3914419999999990 F
   0.4059390000000000    0.4528450000000000    0.7539560000000000 F
   0.9059389999999991    0.5471549999999999    0.7460439999999990 F
   0.5940610000000000    0.5471549999999999    0.2460439999999990 F
   0.0940609999999990    0.4528450000000000    0.2539560000000000 F
   0.4591829999999990    0.2464249999999990    0.8751209999999990 F
   0.9591830000000000    0.7535750000000000    0.6248790000000000 F
   0.5408170000000000    0.7535750000000000    0.1248789999999990 F
   0.0408170000000000    0.2464249999999990    0.3751210000000000 F
   0.3601950000000000    0.3595589999999990    0.9825820000000000 F
   0.8601949999999990    0.6404409999999990    0.5174179999999990 F
   0.6398050000000000    0.6404409999999990    0.0174180000000000 F
   0.1398049999999990    0.3595589999999990    0.4825819999999990 F
   0.3062070000000000    0.5657090000000000    0.8632010000000000 F
   0.8062070000000000    0.4342910000000000    0.6367990000000000 F
   0.6937930000000000    0.4342910000000000    0.1367990000000000 F
   0.1937930000000000    0.5657090000000000    0.3632010000000000 F
