K3 Mg1 Sb1 S4
1.0
   5.6625062499999999    0.0021265800000000   -3.3910596599999998
  -2.8294118900000003    4.9049379399999999   -3.3910596599999998
   0.0015406200000000    0.0026684400000000   10.1769062800000007
K Mg Sb S
3 1 1 4
direct
   0.9990034800000001    0.5598662300000000    0.5529430900000000 K
   0.5598662300000000    0.9990034800000001    0.5529430800000000 K
   0.4388803000000000    0.4388803000000000    0.9920704200000000 K
   0.9994973100000000    0.9994973100000000    0.2891747100000000 Mg
  -0.0001820300000000   -0.0001820300000000    0.0081992800000000 Sb
   0.9997704300000000    0.9997704300000000    0.5153811700000001 S
   0.9996095500000001    0.6375672700000000    0.0218412700000000 S
   0.6375672700000000    0.9996095500000001    0.0218412800000000 S
   0.3613574600000000    0.3613574600000000    0.3835687100000000 S
