As1 S24 I3
1.0
   7.3841556600000002  -12.5086196800000007   -0.0777855300000000
   7.3841556600000002   12.5086196800000007   -0.0777855300000000
 -13.7552137299999995    0.0000000000000000    4.6681312899999998
As S I
1 24 3
direct
   0.7395874300000000    0.7395874300000000    0.7395874300000000 As
   0.8120435400000000    0.5342202200000000    0.5342202200000000 S
   0.5342202200000000    0.5342202200000000    0.8120435400000000 S
   0.5342202200000000    0.8120435400000000    0.5342202200000000 S
   0.2329031600000000    0.3661962100000000    0.6206595100000000 S
   0.3721792300000000    0.9745067500000000    0.3721792300000000 S
   0.3721792300000000    0.3721792300000000    0.9745067500000000 S
   0.9745067500000000    0.3721792300000000    0.3721792300000000 S
   0.1158040100000000    0.7337585800000000    0.2484921200000000 S
   0.2484921200000000    0.1158040100000000    0.7337585800000000 S
   0.7337585800000000    0.2484921200000000    0.1158040100000000 S
   0.7337585800000000    0.1158040100000000    0.2484921200000000 S
   0.2484921200000000    0.7337585800000000    0.1158040100000000 S
   0.1158040100000000    0.2484921200000000    0.7337585800000000 S
   0.3527276400000000    0.8878043300000000    0.5419640200000000 S
   0.5419640200000000    0.3527276400000000    0.8878043300000000 S
   0.8878043300000000    0.5419640200000000    0.3527276400000000 S
   0.8878043300000000    0.3527276400000000    0.5419640200000000 S
   0.5419640200000000    0.8878043300000000    0.3527276400000000 S
   0.3527276400000000    0.5419640200000000    0.8878043300000000 S
   0.2329031600000000    0.6206595100000000    0.3661962100000000 S
   0.3661962100000000    0.2329031600000000    0.6206595100000000 S
   0.6206595100000000    0.3661962100000000    0.2329031600000000 S
   0.6206595100000000    0.2329031600000000    0.3661962100000000 S
   0.3661962100000000    0.6206595100000000    0.2329031600000000 S
   0.8889708400000000    0.0483856900000000    0.0483856900000000 I
   0.0483856900000000    0.0483856900000000    0.8889708400000000 I
   0.0483856900000000    0.8889708400000000    0.0483856900000000 I
