Cu4 As28 P4 S28 Cl4
1.0
  13.7131679999999996    0.0000000000000000    0.0000000000000000
   0.0000000000000000    9.6943210000000004    0.0000000000000000
   0.0000000000000000    1.5236600000000000   13.9806430000000006
Cu As P S Cl
4 28 4 28 4
direct
   0.6695740000000000    0.6265210000000000    0.2894910000000000 Cu
   0.1695740000000000    0.3734790000000000    0.2105090000000000 Cu
   0.3304260000000000    0.3734790000000000    0.7105089999999999 Cu
   0.8304260000000000    0.6265210000000000    0.7894909999999991 Cu
   0.4385630000000000    0.0758160000000000    0.1730280000000000 As
   0.9385629999999990    0.9241840000000000    0.3269720000000000 As
   0.5614370000000000    0.9241840000000000    0.8269719999999990 As
   0.0614370000000000    0.0758160000000000    0.6730280000000000 As
   0.3875900000000000    0.0244060000000000    0.3455249999999990 As
   0.8875900000000001    0.9755940000000000    0.1544750000000000 As
   0.6124100000000000    0.9755940000000000    0.6544749999999990 As
   0.1124100000000000    0.0244060000000000    0.8455250000000000 As
   0.5371119999999990    0.1687120000000000    0.3022420000000000 As
   0.0371120000000000    0.8312879999999990    0.1977580000000000 As
   0.4628879999999990    0.8312879999999990    0.6977580000000000 As
   0.9628880000000000    0.1687120000000000    0.8022420000000000 As
   0.6110570000000000    0.5981620000000000    0.0096040000000000 As
   0.1110569999999990    0.4018380000000000    0.4903960000000000 As
   0.3889430000000000    0.4018380000000000    0.9903959999999991 As
   0.8889429999999990    0.5981620000000000    0.5096039999999999 As
   0.6696949999999990    0.3848519999999990    0.9253939999999991 As
   0.1696949999999990    0.6151479999999990    0.5746060000000000 As
   0.3303049999999990    0.6151479999999990    0.0746059999999990 As
   0.8303050000000000    0.3848519999999990    0.4253940000000000 As
   0.7489439999999991    0.3602070000000000    0.1646280000000000 As
   0.2489440000000000    0.6397929999999999    0.3353720000000000 As
   0.2510560000000000    0.6397929999999999    0.8353720000000000 As
   0.7510559999999999    0.3602070000000000    0.6646280000000000 As
   0.8579950000000000    0.5337790000000000    0.0569570000000000 As
   0.3579950000000000    0.4662210000000000    0.4430429999999990 As
   0.1420050000000000    0.4662210000000000    0.9430430000000000 As
   0.6420049999999990    0.5337790000000000    0.5569569999999990 As
   0.5842220000000000    0.8231039999999999    0.2906229999999990 P
   0.0842219999999990    0.1768960000000000    0.2093769999999990 P
   0.4157780000000000    0.1768960000000000    0.7093769999999990 P
   0.9157780000000000    0.8231039999999999    0.7906230000000000 P
   0.5248690000000000    0.8807609999999990    0.1548900000000000 S
   0.0248690000000000    0.1192390000000000    0.3451100000000000 S
   0.4751309999999990    0.1192390000000000    0.8451100000000000 S
   0.9751310000000000    0.8807609999999990    0.6548900000000001 S
   0.4619780000000000    0.8159270000000000    0.3822810000000000 S
   0.9619780000000000    0.1840730000000000    0.1177189999999990 S
   0.5380220000000000    0.1840730000000000    0.6177190000000000 S
   0.0380220000000000    0.8159270000000000    0.8822810000000000 S
   0.6547550000000000    0.0038789999999990    0.3247009999999990 S
   0.1547550000000000    0.9961209999999990    0.1752989999999990 S
   0.3452449999999990    0.9961209999999990    0.6752990000000000 S
   0.8452449999999990    0.0038789999999990    0.8247010000000000 S
   0.6128370000000000    0.4958200000000000    0.1650460000000000 S
   0.1128369999999990    0.5041800000000001    0.3349540000000000 S
   0.3871630000000000    0.5041800000000001    0.8349540000000000 S
   0.8871629999999990    0.4958200000000000    0.6650459999999990 S
   0.7530439999999990    0.7097789999999990    0.0195500000000000 S
   0.2530440000000000    0.2902210000000000    0.4804500000000000 S
   0.2469559999999990    0.2902210000000000    0.9804500000000000 S
   0.7469560000000000    0.7097789999999990    0.5195500000000001 S
   0.8323700000000001    0.4421920000000000    0.9135000000000001 S
   0.3323700000000001    0.5578080000000000    0.5865000000000000 S
   0.1676300000000000    0.5578080000000000    0.0865000000000000 S
   0.6676300000000001    0.4421920000000000    0.4135000000000000 S
   0.6918190000000000    0.2280829999999990    0.0543279999999990 S
   0.1918190000000000    0.7719170000000000    0.4456719999999990 S
   0.3081810000000000    0.7719170000000000    0.9456720000000000 S
   0.8081809999999990    0.2280829999999990    0.5543279999999990 S
   0.8407330000000000    0.6484120000000000    0.2641820000000000 Cl
   0.3407330000000000    0.3515880000000000    0.2358180000000000 Cl
   0.1592670000000000    0.3515880000000000    0.7358180000000000 Cl
   0.6592669999999990    0.6484120000000000    0.7641819999999990 Cl
