Co2 As4 S12 N12 F36
1.0
   9.5548140000000004    0.0000000000000000    0.0000000000000000
   0.0000000000000000    9.6876610000000003    0.0000000000000000
   0.0000000000000000    9.5627990000000000   13.6524420000000006
Co As S N F
2 4 12 12 36
direct
   0.5000000000000000    0.0000000000000000    0.5000000000000000 Co
   0.0000000000000000    0.0000000000000000    0.0000000000000000 Co
   0.5511330000000000    0.2568260000000000    0.7464780000000000 As
   0.9488669999999991    0.2568260000000000    0.2464780000000000 As
   0.4488669999999990    0.7431740000000000    0.2535219999999990 As
   0.0511330000000000    0.7431740000000000    0.7535219999999990 As
   0.3050650000000000    0.6622140000000000    0.5362020000000000 S
   0.1949350000000000    0.6622140000000000    0.0362020000000000 S
   0.6949350000000000    0.3377860000000000    0.4637980000000000 S
   0.8050649999999990    0.3377860000000000    0.9637979999999990 S
   0.8040459999999990    0.7687490000000000    0.5371429999999990 S
   0.6959540000000000    0.7687490000000000    0.0371429999999990 S
   0.1959540000000000    0.2312509999999990    0.4628569999999990 S
   0.3040460000000000    0.2312509999999990    0.9628570000000000 S
   0.4659919999999990    0.8199130000000000    0.7509669999999991 S
   0.0340080000000000    0.8199130000000000    0.2509670000000000 S
   0.5340079999999990    0.1800870000000000    0.2490329999999990 S
   0.9659920000000000    0.1800870000000000    0.7490329999999999 S
   0.3880869999999990    0.7942939999999999    0.5267120000000000 N
   0.1119130000000000    0.7942939999999999    0.0267120000000000 N
   0.6119129999999990    0.2057060000000000    0.4732880000000000 N
   0.8880870000000000    0.2057060000000000    0.9732879999999990 N
   0.4790879999999990    0.9035569999999991    0.6469950000000000 N
   0.0209120000000000    0.9035569999999991    0.1469950000000000 N
   0.5209119999999990    0.0964430000000000    0.3530049999999990 N
   0.9790880000000000    0.0964430000000000    0.8530050000000000 N
   0.6837529999999991    0.8656689999999990    0.5283970000000000 N
   0.8162469999999999    0.8656689999999990    0.0283970000000000 N
   0.3162470000000000    0.1343310000000000    0.4716030000000000 N
   0.1837530000000000    0.1343310000000000    0.9716030000000000 N
   0.4054970000000000    0.1303649999999990    0.7633780000000000 F
   0.0945029999999990    0.1303649999999990    0.2633780000000000 F
   0.5945030000000000    0.8696349999999990    0.2366220000000000 F
   0.9054970000000000    0.8696349999999990    0.7366220000000000 F
   0.5726590000000000    0.1434830000000000    0.8755830000000000 F
   0.9273410000000000    0.1434830000000000    0.3755830000000000 F
   0.4273409999999990    0.8565170000000000    0.1244170000000000 F
   0.0726590000000000    0.8565170000000000    0.6244170000000000 F
   0.7007629999999990    0.3807439999999990    0.7298120000000000 F
   0.7992370000000000    0.3807439999999990    0.2298120000000000 F
   0.2992370000000000    0.6192559999999990    0.2701880000000000 F
   0.2007630000000000    0.6192559999999990    0.7701880000000000 F
   0.5325280000000000    0.3722379999999990    0.6170100000000001 F
   0.9674720000000000    0.3722379999999990    0.1170100000000000 F
   0.4674720000000000    0.6277619999999990    0.3829900000000001 F
   0.0325280000000000    0.6277619999999990    0.8829900000000001 F
   0.6634690000000000    0.1109600000000000    0.7452730000000000 F
   0.8365309999999990    0.1109600000000000    0.2452730000000000 F
   0.3365309999999990    0.8890400000000001    0.2547270000000000 F
   0.1634690000000000    0.8890400000000001    0.7547269999999990 F
   0.4399050000000000    0.4023029999999990    0.7476480000000000 F
   0.0600949999999990    0.4023029999999990    0.2476479999999990 F
   0.5600950000000000    0.5976969999999990    0.2523519999999990 F
   0.9399050000000000    0.5976969999999990    0.7523520000000000 F
   0.1538900000000000    0.7253500000000001    0.4739080000000000 F
   0.3461100000000000    0.7253500000000001    0.9739080000000000 F
   0.8461100000000000    0.2746500000000000    0.5260920000000000 F
   0.6538900000000001    0.2746500000000000    0.0260919999999990 F
   0.7990980000000000    0.6946040000000000    0.4683730000000000 F
   0.7009019999999990    0.6946040000000000    0.9683729999999990 F
   0.2009020000000000    0.3053960000000000    0.5316270000000000 F
   0.2990980000000000    0.3053960000000000    0.0316269999999990 F
   0.5454559999999991    0.6325609999999990    0.8182539999999990 F
   0.9545439999999999    0.6325609999999990    0.3182540000000000 F
   0.4545440000000000    0.3674389999999990    0.1817460000000000 F
   0.0454559999999990    0.3674389999999990    0.6817460000000000 F
