Rb3 Ag9 Sb4 S12
1.0
  -5.5672370000000004    5.5672370000000004    5.9344599999999996
   5.5672370000000004   -5.5672370000000004    5.9344599999999996
   5.5672370000000004    5.5672370000000004   -5.9344599999999996
Rb Ag Sb S
3 9 4 12
direct
   0.0000000000000000    0.0000000000000000    0.0000000000000000 Rb
   0.6717510000000000    0.6717510000000000    0.0000000000000000 Rb
   0.3282489999999990    0.3282489999999990    0.0000000000000000 Rb
   0.2500000000000000    0.7500000000000000    0.5000000000000000 Ag
   0.3343020000000000    0.4867600000000000    0.4937160000000000 Ag
   0.9930439999999990    0.8405849999999990    0.5062840000000000 Ag
   0.5015410000000000    0.0062390000000000    0.1693480000000000 Ag
   0.8368909999999991    0.3321929999999990    0.8306519999999999 Ag
   0.6678069999999990    0.4984590000000000    0.5046980000000000 Ag
   0.9937610000000000    0.1631090000000000    0.4953019999999990 Ag
   0.5132400000000000    0.0069559999999990    0.8475419999999990 Ag
   0.1594150000000000    0.6656980000000000    0.1524579999999990 Ag
   0.1206830000000000    0.6074240000000000    0.7409319999999990 Sb
   0.8664919999999990    0.3797500000000000    0.2590679999999990 Sb
   0.6202500000000001    0.8793170000000000    0.4867419999999991 Sb
   0.3925760000000000    0.1335080000000000    0.5132580000000000 Sb
   0.2112990000000000    0.8880830000000000    0.7812600000000001 S
   0.1068230000000000    0.4300390000000000    0.2187400000000000 S
   0.9021009999999990    0.1080940000000000    0.6898620000000000 S
   0.4182320000000000    0.2122400000000000    0.3101379999999990 S
   0.7877600000000000    0.0978990000000000    0.2059929999999990 S
   0.8919060000000000    0.5817680000000000    0.7940070000000000 S
   0.1119169999999990    0.8931770000000000    0.3232160000000000 S
   0.5699609999999991    0.7887010000000000    0.6767839999999991 S
   0.3365249999999990    0.6915350000000000    0.0232250000000000 S
   0.6683100000000001    0.3132990000000000    0.9767749999999999 S
   0.6867010000000000    0.6634749999999990    0.3550109999999990 S
   0.3084650000000000    0.3316900000000000    0.6449889999999990 S
