Ag6 As2 S6
1.0
   4.4403759999999997   -5.8259220000000003    0.0000000000000000
   4.4403759999999997    5.8259220000000003    0.0000000000000000
  -3.2034280000000002    0.0000000000000000    6.5875909999999998
Ag As S
6 2 6
direct
   0.1237210000000000    0.5432009999999990    0.0319490000000000 Ag
   0.5319490000000000    0.0432009999999990    0.6237210000000000 Ag
   0.5432009999999990    0.0319490000000000    0.1237210000000000 Ag
   0.0432009999999990    0.6237210000000000    0.5319490000000000 Ag
   0.0319490000000000    0.1237210000000000    0.5432009999999990 Ag
   0.6237210000000000    0.5319490000000000    0.0432009999999990 Ag
   0.5869280000000000    0.5869280000000000    0.5869280000000000 As
   0.0869279999999990    0.0869279999999990    0.0869279999999990 As
   0.6810500000000000    0.4133650000000000    0.3379860000000000 S
   0.8379860000000000    0.9133650000000000    0.1810500000000000 S
   0.4133650000000000    0.3379860000000000    0.6810500000000000 S
   0.9133650000000000    0.1810500000000000    0.8379860000000000 S
   0.3379860000000000    0.6810500000000000    0.4133650000000000 S
   0.1810500000000000    0.8379860000000000    0.9133650000000000 S
