Cu2 Bi6 Pb2 S12
1.0
   4.0549130000000000    0.0000000000000000    0.0000000000000000
   0.0000000000000000   11.3691289999999992    0.0000000000000000
   0.0000000000000000    0.0000000000000000   11.6871790000000004
Cu Bi Pb S
2 6 2 12
direct
   0.0000000000000000    0.0418189999999990    0.7361630000000000 Cu
   0.0000000000000000    0.9581809999999999    0.2361629999999990 Cu
   0.0000000000000000    0.5716709999999990    0.5249300000000000 Bi
   0.0000000000000000    0.4283289999999990    0.0249300000000000 Bi
   0.5000000000000000    0.9263610000000000    0.4850620000000000 Bi
   0.5000000000000000    0.0736390000000000    0.9850620000000000 Bi
   0.0000000000000000    0.7633369999999990    0.8488960000000000 Bi
   0.0000000000000000    0.2366629999999990    0.3488960000000000 Bi
   0.5000000000000000    0.7140600000000000    0.1709500000000000 Pb
   0.5000000000000000    0.2859400000000000    0.6709500000000000 Pb
   0.0000000000000000    0.4501570000000000    0.7139360000000000 S
   0.0000000000000000    0.5498430000000000    0.2139360000000000 S
   0.5000000000000000    0.0528229999999990    0.2790700000000000 S
   0.5000000000000000    0.9471769999999990    0.7790700000000000 S
   0.0000000000000000    0.1062309999999990    0.5407790000000000 S
   0.0000000000000000    0.8937689999999990    0.0407789999999990 S
   0.5000000000000000    0.3746670000000000    0.4413169999999990 S
   0.5000000000000000    0.6253329999999990    0.9413170000000000 S
   0.0000000000000000    0.1904410000000000    0.8745050000000000 S
   0.0000000000000000    0.8095589999999990    0.3745050000000000 S
   0.5000000000000000    0.3018290000000000    0.1140920000000000 S
   0.5000000000000000    0.6981710000000000    0.6140920000000000 S
