Li6 Bi2 S6
1.0
   6.8799400000000004   -3.5659190000000001    0.0000000000000000
   6.8799400000000004    3.5659190000000001    0.0000000000000000
   5.0316999999999998    0.0000000000000000    5.8933309999999999
Li Bi S
6 2 6
direct
   0.3163260000000000    0.9112230000000000    0.6314210000000000 Li
   0.3685790000000000    0.6836740000000000    0.0887770000000000 Li
   0.9112230000000000    0.6314210000000000    0.3163260000000000 Li
   0.0887770000000000    0.3685790000000000    0.6836740000000000 Li
   0.6314210000000000    0.3163260000000000    0.9112230000000000 Li
   0.6836740000000000    0.0887770000000000    0.3685790000000000 Li
   0.8303200000000001    0.8303200000000001    0.8303200000000001 Bi
   0.1696800000000000    0.1696800000000000    0.1696800000000000 Bi
   0.5776840000000000    0.9569519999999990    0.2265809999999990 S
   0.0430479999999990    0.7734190000000000    0.4223159999999990 S
   0.2265809999999990    0.5776840000000000    0.9569519999999990 S
   0.7734190000000000    0.4223159999999990    0.0430479999999990 S
   0.9569519999999990    0.2265809999999990    0.5776840000000000 S
   0.4223159999999990    0.0430479999999990    0.7734190000000000 S
