Li12 Sb4 S16
1.0
   7.2025170000000003    0.0000000000000000    0.0000000000000000
   0.0000000000000000    9.2496480000000005    0.0000000000000000
   0.0000000000000000    0.0000000000000000   10.0661120000000004
Li Sb S
12 4 16
direct
   0.2639450000000000    0.0483020000000000    0.2452150000000000 Li
   0.2639450000000000    0.4516980000000000    0.2452150000000000 Li
   0.0121330000000000    0.7500000000000000    0.0957850000000000 Li
   0.4878670000000000    0.2500000000000000    0.5957850000000000 Li
   0.2360550000000000    0.5483020000000000    0.7452150000000000 Li
   0.2360550000000000    0.9516979999999990    0.7452150000000000 Li
   0.7639450000000000    0.0483020000000000    0.2547850000000000 Li
   0.7639450000000000    0.4516980000000000    0.2547850000000000 Li
   0.5121329999999999    0.7500000000000000    0.4042150000000000 Li
   0.9878669999999991    0.2500000000000000    0.9042150000000000 Li
   0.7360550000000000    0.5483020000000000    0.7547849999999990 Li
   0.7360550000000000    0.9516979999999990    0.7547849999999990 Li
   0.0745660000000000    0.7500000000000000    0.4935440000000000 Sb
   0.4254340000000000    0.2500000000000000    0.9935440000000000 Sb
   0.5745660000000000    0.7500000000000000    0.0064560000000000 Sb
   0.9254340000000000    0.2500000000000000    0.5064560000000000 Sb
   0.8522580000000000    0.7500000000000000    0.3193430000000000 S
   0.2153090000000000    0.0529220000000000    0.9802230000000000 S
   0.2153090000000000    0.4470780000000000    0.9802230000000000 S
   0.9816959999999991    0.7500000000000000    0.7202080000000000 S
   0.5183040000000000    0.2500000000000000    0.2202080000000000 S
   0.2846909999999990    0.5529220000000000    0.4802229999999990 S
   0.2846909999999990    0.9470780000000000    0.4802229999999990 S
   0.6477419999999990    0.2500000000000000    0.8193429999999990 S
   0.3522579999999990    0.7500000000000000    0.1806569999999990 S
   0.7153090000000000    0.0529220000000000    0.5197769999999990 S
   0.7153090000000000    0.4470780000000000    0.5197769999999990 S
   0.4816959999999990    0.7500000000000000    0.7797919999999990 S
   0.0183040000000000    0.2500000000000000    0.2797920000000000 S
   0.7846909999999990    0.9470780000000000    0.0197770000000000 S
   0.7846909999999990    0.5529220000000000    0.0197770000000000 S
   0.1477419999999990    0.2500000000000000    0.6806570000000000 S
