Cs6 Ag4 Sb6 S16
1.0
   7.3961309999999996    0.0000000000000000    0.0000000000000000
   0.0000000000000000   10.8473179999999996    0.0000000000000000
   0.0000000000000000    2.8642520000000000   12.6885790000000007
Cs Ag Sb S
6 4 6 16
direct
   0.2500000000000000    0.4576920000000000    0.6577339999999990 Cs
   0.7500000000000000    0.5423080000000000    0.3422659999999990 Cs
   0.2500000000000000    0.5816910000000000    0.0741850000000000 Cs
   0.7500000000000000    0.4183090000000000    0.9258149999999991 Cs
   0.2500000000000000    0.1453020000000000    0.4482690000000000 Cs
   0.7500000000000000    0.8546980000000000    0.5517310000000000 Cs
   0.5282249999999999    0.8727349999999990    0.1018230000000000 Ag
   0.0282250000000000    0.1272650000000000    0.8981770000000000 Ag
   0.4717750000000000    0.1272650000000000    0.8981770000000000 Ag
   0.9717749999999991    0.8727349999999990    0.1018230000000000 Ag
   0.7500000000000000    0.1324620000000000    0.2094160000000000 Sb
   0.2500000000000000    0.8675379999999990    0.7905840000000000 Sb
   0.2500000000000000    0.1757459999999990    0.1147619999999990 Sb
   0.7500000000000000    0.8242539999999990    0.8852380000000000 Sb
   0.2500000000000000    0.7709769999999990    0.3729480000000000 Sb
   0.7500000000000000    0.2290229999999990    0.6270519999999991 Sb
   0.7500000000000000    0.0890870000000000    0.0267010000000000 S
   0.2500000000000000    0.9109130000000000    0.9732989999999990 S
   0.4987919999999990    0.2954759999999990    0.1848270000000000 S
   0.9987919999999991    0.7045239999999990    0.8151729999999990 S
   0.5012080000000000    0.7045239999999990    0.8151729999999990 S
   0.0012079999999990    0.2954759999999990    0.1848270000000000 S
   0.2500000000000000    0.3024640000000000    0.9366249999999990 S
   0.7500000000000000    0.6975359999999990    0.0633750000000000 S
   0.5162820000000000    0.8752829999999990    0.2950280000000000 S
   0.0162819999999990    0.1247170000000000    0.7049719999999990 S
   0.4837180000000000    0.1247170000000000    0.7049719999999990 S
   0.9837180000000000    0.8752829999999990    0.2950280000000000 S
   0.2500000000000000    0.5574780000000000    0.3600580000000000 S
   0.7500000000000000    0.4425219999999990    0.6399420000000000 S
   0.2500000000000000    0.7964760000000000    0.5479729999999990 S
   0.7500000000000000    0.2035239999999990    0.4520269999999990 S
