Cu2 Bi6 Pb2 S12
1.0
   4.0629109999999997    0.0000000000000000    0.0000000000000000
   0.0000000000000000   11.2137159999999998    0.0000000000000000
   0.0000000000000000    0.0000000000000000   11.6607599999999998
Cu Bi Pb S
2 6 2 12
direct
   0.0000000000000000    0.7892690000000000    0.5120460000000000 Cu
   0.5000000000000000    0.2892690000000000    0.4879540000000000 Cu
   0.0000000000000000    0.3209610000000000    0.7396700000000000 Bi
   0.0000000000000000    0.1796500000000000    0.2258339999999990 Bi
   0.5000000000000000    0.6796500000000001    0.7741659999999990 Bi
   0.5000000000000000    0.8209609999999991    0.2603300000000000 Bi
   0.0000000000000000    0.9786360000000000    0.9120300000000001 Bi
   0.5000000000000000    0.4786360000000000    0.0879700000000000 Bi
   0.0000000000000000    0.5177820000000000    0.4126209999999990 Pb
   0.5000000000000000    0.0177820000000000    0.5873790000000000 Pb
   0.0000000000000000    0.8589049999999990    0.7076970000000000 S
   0.0000000000000000    0.6300049999999990    0.2003279999999990 S
   0.5000000000000000    0.1300049999999990    0.7996719999999991 S
   0.5000000000000000    0.3589050000000000    0.2923030000000000 S
   0.0000000000000000    0.5505320000000000    0.8715950000000000 S
   0.0000000000000000    0.9399959999999991    0.3682880000000000 S
   0.5000000000000000    0.4399960000000000    0.6317119999999991 S
   0.5000000000000000    0.0505320000000000    0.1284050000000000 S
   0.0000000000000000    0.2068289999999990    0.5294510000000000 S
   0.0000000000000000    0.3160370000000000    0.0371019999999990 S
   0.5000000000000000    0.8160370000000000    0.9628979999999990 S
   0.5000000000000000    0.7068289999999990    0.4705490000000000 S
