La6 Be2 Bi2 S14
1.0
   5.1558539999999997   -8.9302019999999995    0.0000000000000000
   5.1558539999999997    8.9302019999999995    0.0000000000000000
   0.0000000000000000    0.0000000000000000    6.2803410000000000
La Be Bi S
6 2 2 14
direct
   0.7385760000000000    0.1363200000000000    0.2473959999999990 La
   0.3977440000000000    0.2614240000000000    0.2473959999999990 La
   0.8636800000000001    0.6022560000000000    0.2473959999999990 La
   0.2614240000000000    0.8636800000000001    0.7473959999999999 La
   0.6022560000000000    0.7385760000000000    0.7473959999999999 La
   0.1363200000000000    0.3977440000000000    0.7473959999999999 La
   0.6666670000000000    0.3333330000000000    0.6597000000000001 Be
   0.3333330000000000    0.6666670000000000    0.1597000000000000 Be
   0.0000000000000000    0.0000000000000000    0.0100279999999990 Bi
   0.0000000000000000    0.0000000000000000    0.5100279999999990 Bi
   0.8321370000000000    0.0870210000000000    0.7765639999999990 S
   0.2548850000000000    0.1678629999999990    0.7765639999999990 S
   0.9129790000000000    0.7451150000000000    0.7765639999999990 S
   0.1678629999999990    0.9129790000000000    0.2765640000000000 S
   0.7451150000000000    0.8321370000000000    0.2765640000000000 S
   0.0870210000000000    0.2548850000000000    0.2765640000000000 S
   0.8826780000000000    0.4032580000000000    0.5276440000000000 S
   0.5205800000000000    0.1173220000000000    0.5276440000000000 S
   0.5967420000000000    0.4794200000000000    0.5276440000000000 S
   0.1173220000000000    0.5967420000000000    0.0276440000000000 S
   0.4794200000000000    0.8826780000000000    0.0276440000000000 S
   0.4032580000000000    0.5205800000000000    0.0276440000000000 S
   0.6666670000000000    0.3333330000000000    0.0074630000000000 S
   0.3333330000000000    0.6666670000000000    0.5074630000000000 S
