As8 Se12 S12 N16 F48
1.0
  16.5240359999999988    0.0000000000000000    0.0000000000000000
   0.0000000000000000   10.2519510000000000    0.0000000000000000
   0.0000000000000000    8.8363230000000001   10.3908030000000000
As Se S N F
8 12 12 16 48
direct
   0.1548930000000000    0.6076920000000000    0.6369290000000000 As
   0.3451070000000000    0.6076920000000000    0.1369290000000000 As
   0.8451069999999991    0.3923080000000000    0.3630710000000000 As
   0.6548929999999999    0.3923080000000000    0.8630709999999990 As
   0.5582920000000000    0.0704460000000000    0.6940830000000000 As
   0.9417080000000000    0.0704460000000000    0.1940829999999990 As
   0.4417080000000000    0.9295540000000000    0.3059170000000000 As
   0.0582920000000000    0.9295540000000000    0.8059170000000000 As
   0.3837549999999990    0.2210240000000000    0.9048809999999990 Se
   0.1162450000000000    0.2210240000000000    0.4048810000000000 Se
   0.6162449999999990    0.7789760000000000    0.0951190000000000 Se
   0.8837550000000000    0.7789760000000000    0.5951190000000000 Se
   0.2071009999999990    0.3282069999999990    0.0333320000000000 Se
   0.2928989999999990    0.3282069999999990    0.5333320000000000 Se
   0.7928989999999990    0.6717930000000000    0.9666680000000000 Se
   0.7071010000000000    0.6717930000000000    0.4666679999999990 Se
   0.1993090000000000    0.1616540000000000    0.9637479999999990 Se
   0.3006910000000000    0.1616540000000000    0.4637480000000000 Se
   0.8006909999999990    0.8383459999999990    0.0362520000000000 Se
   0.6993090000000000    0.8383459999999990    0.5362520000000000 Se
   0.1906360000000000    0.9588319999999991    0.2419289999999990 S
   0.3093640000000000    0.9588319999999991    0.7419289999999999 S
   0.8093640000000000    0.0411679999999990    0.7580709999999991 S
   0.6906359999999990    0.0411679999999990    0.2580710000000000 S
   0.3985120000000000    0.5883969999999999    0.6966160000000000 S
   0.1014880000000000    0.5883969999999999    0.1966159999999990 S
   0.6014880000000000    0.4116030000000000    0.3033840000000000 S
   0.8985120000000000    0.4116030000000000    0.8033840000000000 S
   0.3873689999999990    0.3914180000000000    0.9626140000000000 S
   0.1126310000000000    0.3914180000000000    0.4626139999999990 S
   0.6126309999999990    0.6085820000000000    0.0373859999999990 S
   0.8873690000000000    0.6085820000000000    0.5373860000000000 S
   0.3927330000000000    0.4053420000000000    0.7384100000000000 N
   0.1072670000000000    0.4053420000000000    0.2384100000000000 N
   0.6072670000000000    0.5946580000000000    0.2615900000000000 N
   0.8927330000000000    0.5946580000000000    0.7615900000000001 N
   0.1890550000000000    0.9638620000000000    0.1246610000000000 N
   0.3109449999999990    0.9638620000000000    0.6246610000000000 N
   0.8109449999999990    0.0361379999999990    0.8753390000000000 N
   0.6890550000000000    0.0361379999999990    0.3753390000000000 N
   0.3975740000000000    0.5717030000000000    0.8200930000000000 N
   0.1024259999999990    0.5717030000000000    0.3200929999999990 N
   0.6024260000000000    0.4282970000000000    0.1799069999999990 N
   0.8975740000000000    0.4282970000000000    0.6799069999999990 N
   0.1980750000000000    0.1409379999999990    0.1999920000000000 N
   0.3019250000000000    0.1409379999999990    0.6999919999999999 N
   0.8019250000000000    0.8590620000000000    0.8000079999999991 N
   0.6980750000000000    0.8590620000000000    0.3000080000000000 N
   0.2413010000000000    0.6844760000000000    0.5366300000000001 F
   0.2586990000000000    0.6844760000000000    0.0366300000000000 F
   0.7586990000000000    0.3155239999999990    0.4633700000000001 F
   0.7413010000000000    0.3155239999999990    0.9633700000000001 F
   0.0713300000000000    0.5247600000000000    0.7426159999999991 F
   0.4286700000000001    0.5247600000000000    0.2426160000000000 F
   0.9286700000000001    0.4752400000000001    0.2573840000000000 F
   0.5713300000000000    0.4752400000000001    0.7573839999999999 F
   0.4923659999999990    0.0941620000000000    0.7840380000000000 F
   0.0076339999999990    0.0941620000000000    0.2840380000000000 F
   0.5076340000000000    0.9058379999999990    0.2159620000000000 F
   0.9923660000000000    0.9058379999999990    0.7159620000000000 F
   0.6068819999999990    0.2644330000000000    0.6296470000000000 F
   0.8931180000000000    0.2644330000000000    0.1296469999999990 F
   0.3931179999999990    0.7355670000000000    0.3703530000000000 F
   0.1068819999999990    0.7355670000000000    0.8703529999999990 F
   0.5126430000000000    0.8724630000000000    0.7611300000000001 F
   0.9873569999999990    0.8724630000000000    0.2611300000000000 F
   0.4873570000000000    0.1275369999999990    0.2388700000000000 F
   0.0126430000000000    0.1275369999999990    0.7388700000000000 F
   0.6266659999999999    0.0418650000000000    0.6088740000000000 F
   0.8733339999999991    0.0418650000000000    0.1088740000000000 F
   0.3733340000000000    0.9581350000000000    0.3911260000000000 F
   0.1266660000000000    0.9581350000000000    0.8911260000000000 F
   0.1387779999999990    0.8123440000000000    0.5873349999999991 F
   0.3612220000000000    0.8123440000000000    0.0873350000000000 F
   0.8612219999999990    0.1876560000000000    0.4126650000000000 F
   0.6387780000000000    0.1876560000000000    0.9126649999999999 F
   0.6283820000000000    0.9551870000000000    0.8299430000000000 F
   0.8716180000000000    0.9551870000000000    0.3299430000000000 F
   0.3716180000000000    0.0448130000000000    0.1700569999999990 F
   0.1283820000000000    0.0448130000000000    0.6700570000000000 F
   0.0926480000000000    0.6530079999999990    0.5129389999999990 F
   0.4073520000000000    0.6530079999999990    0.0129389999999990 F
   0.9073519999999990    0.3469919999999990    0.4870609999999990 F
   0.5926480000000000    0.3469919999999990    0.9870610000000000 F
   0.2190500000000000    0.5512680000000000    0.7673970000000000 F
   0.2809500000000000    0.5512680000000000    0.2673970000000000 F
   0.7809500000000000    0.4487319999999990    0.2326029999999990 F
   0.7190500000000001    0.4487319999999990    0.7326030000000000 F
   0.4894600000000001    0.1804210000000000    0.5627139999999990 F
   0.0105400000000000    0.1804210000000000    0.0627139999999990 F
   0.5105400000000000    0.8195789999999999    0.4372859999999990 F
   0.9894600000000001    0.8195789999999999    0.9372860000000000 F
   0.1749250000000000    0.3990340000000000    0.6902630000000000 F
   0.3250750000000000    0.3990340000000000    0.1902630000000000 F
   0.8250750000000000    0.6009660000000000    0.3097370000000000 F
   0.6749250000000000    0.6009660000000000    0.8097369999999990 F
