K6 Ta4 As2 Se22
1.0
   6.6455960000000003    7.6130599999999999    0.0000000000000000
  -6.6455960000000003    7.6130599999999999    0.0000000000000000
   0.0000000000000000    1.7300240000000000    9.9509699999999999
K Ta As Se
6 4 2 22
direct
   0.6657440000000000    0.8003129999999991    0.9172230000000000 K
   0.4329730000000000    0.2702740000000000    0.1655039999999990 K
   0.8003129999999991    0.6657440000000000    0.4172229999999990 K
   0.9007280000000000    0.0541619999999990    0.2531359999999990 K
   0.2702740000000000    0.4329730000000000    0.6655040000000000 K
   0.0541619999999990    0.9007280000000000    0.7531359999999990 K
   0.8261050000000000    0.4096940000000000    0.8306410000000000 Ta
   0.7067190000000000    0.1604450000000000    0.6460009999999990 Ta
   0.4096940000000000    0.8261050000000000    0.3306400000000000 Ta
   0.1604450000000000    0.7067190000000000    0.1460010000000000 Ta
   0.0464329999999990    0.3490800000000000    0.0981119999999990 As
   0.3490800000000000    0.0464329999999990    0.5981120000000000 As
   0.2012420000000000    0.5061329999999991    0.9929920000000000 Se
   0.8154400000000001    0.3130300000000000    0.4377640000000000 Se
   0.6393360000000000    0.4432970000000000    0.6679450000000000 Se
   0.9409600000000000    0.7848660000000000    0.0889249999999990 Se
   0.7848660000000000    0.9409600000000000    0.5889249999999990 Se
   0.4407319999999990    0.8143830000000000    0.5876030000000000 Se
   0.5976620000000000    0.9402619999999990    0.2451850000000000 Se
   0.9436549999999990    0.2592109999999990    0.6271610000000000 Se
   0.2592109999999990    0.9436549999999990    0.1271610000000000 Se
   0.3130300000000000    0.8154400000000001    0.9377639999999990 Se
   0.8143830000000000    0.4407319999999990    0.0876030000000000 Se
   0.5735300000000001    0.4942780000000000    0.8932629999999990 Se
   0.2259650000000000    0.0342790000000000    0.4039410000000000 Se
   0.0342790000000000    0.2259650000000000    0.9039410000000000 Se
   0.1418530000000000    0.7389859999999990    0.4031940000000000 Se
   0.1332809999999990    0.5164900000000000    0.3434010000000000 Se
   0.4432970000000000    0.6393360000000000    0.1679449999999990 Se
   0.5164900000000000    0.1332809999999990    0.8434010000000000 Se
   0.5061329999999991    0.2012420000000000    0.4929920000000000 Se
   0.9402619999999990    0.5976620000000000    0.7451850000000000 Se
   0.7389859999999990    0.1418530000000000    0.9031939999999991 Se
   0.4942780000000000    0.5735300000000001    0.3932630000000000 Se
