K12 Sb4 S12
1.0
   9.4923799599999992    0.0000000000000000   -0.0000000000000000
  -0.0000000000000000    9.4923799599999992    0.0000000000000000
  -0.0000000000000000   -0.0000000000000000    9.4923799599999992
K Sb S
12 4 12
direct
   0.4398757300000000    0.9398757300000000    0.5601242700000000 K
   0.9398757300000000    0.5601242700000000    0.4398757300000000 K
   0.5601242700000000    0.4398757300000000    0.9398757300000000 K
   0.0601242700000000    0.0601242700000000    0.0601242700000000 K
   0.9349941300000000    0.4349941300000000    0.0650058700000000 K
   0.4349941300000000    0.0650058700000000    0.9349941300000000 K
   0.0650058700000000    0.9349941300000000    0.4349941300000000 K
   0.5650058700000000    0.5650058700000000    0.5650058700000000 K
   0.6771064200000000    0.1771064200000000    0.3228935800000000 K
   0.1771064200000000    0.3228935800000000    0.6771064200000000 K
   0.3228935800000000    0.6771064200000000    0.1771064200000000 K
   0.8228935800000000    0.8228935800000000    0.8228935800000000 K
   0.2211699700000000    0.7211699700000000    0.7788300300000001 Sb
   0.7211699700000000    0.7788300300000001    0.2211699700000000 Sb
   0.7788300300000001    0.2211699700000000    0.7211699700000000 Sb
   0.2788300300000000    0.2788300300000000    0.2788300300000000 Sb
   0.1510753100000000    0.9670817400000000    0.7540054800000000 S
   0.2459945200000000    0.6510753100000000    0.5329182600000000 S
   0.4670817400000000    0.7459945200000000    0.8489246900000000 S
   0.6510753100000000    0.5329182600000000    0.2459945200000000 S
   0.7459945200000000    0.8489246900000000    0.4670817400000000 S
   0.9670817400000000    0.7540054800000000    0.1510753100000000 S
   0.8489246900000000    0.4670817400000000    0.7459945200000000 S
   0.7540054800000000    0.1510753100000000    0.9670817400000000 S
   0.5329182600000000    0.2459945200000000    0.6510753100000000 S
   0.3489246900000000    0.0329182600000000    0.2540054800000000 S
   0.2540054800000000    0.3489246900000000    0.0329182600000000 S
   0.0329182600000000    0.2540054800000000    0.3489246900000000 S
