Hg6 As2 Se8 Br2
1.0
   3.9029095400000000   -6.7600386199999996    0.0000000000000000
   3.9029095400000000    6.7600386199999996   -0.0000000000000000
  -0.0000000000000000   -0.0000000000000000    9.8313005800000006
Hg As Se Br
6 2 8 2
direct
   0.4976026400000000    0.5023973600000000    0.2428427900000000 Hg
   0.5023973600000000    0.0047937200000000    0.7428427900000000 Hg
   0.5023973600000000    0.4976026400000000    0.7428427900000000 Hg
   0.0047937200000000    0.5023973600000000    0.2428427900000000 Hg
   0.4976026400000000    0.9952062800000000    0.2428427900000000 Hg
   0.9952062800000000    0.4976026400000000    0.7428427900000000 Hg
  -0.0000000000000000    0.0000000000000000    0.2285245300000000 As
  -0.0000000000000000    0.0000000000000000    0.7285245300000001 As
   0.8499566800000000    0.6999133600000000    0.3627208400000000 Se
   0.3333330000000000    0.6666670000000000    0.1070897200000000 Se
   0.1500433200000000    0.8499566800000000    0.8627208400000000 Se
   0.1500433200000000    0.3000866400000000    0.8627208400000000 Se
   0.6999133600000000    0.8499566800000000    0.8627208400000000 Se
   0.8499566800000000    0.1500433200000000    0.3627208400000000 Se
   0.6666670000000000    0.3333330000000000    0.6070897200000001 Se
   0.3000866400000000    0.1500433200000000    0.3627208400000000 Se
   0.3333330000000000    0.6666670000000000    0.5317948700000000 Br
   0.6666670000000000    0.3333330000000000    0.0317948700000000 Br
