Sb4 H12 C4 S4 Cl24 O4
1.0
  20.1656089999999999    0.0000000000000000    0.0000000000000000
   0.0000000000000000    6.7742750000000003    0.0000000000000000
   0.0000000000000000    5.2461279999999997    9.2207580000000000
Sb H C S Cl O
4 12 4 4 24 4
direct
   0.6254860000000000    0.0503930000000000    0.2852730000000000 Sb
   0.1254860000000000    0.9496070000000000    0.2147270000000000 Sb
   0.3745139999999990    0.9496070000000000    0.7147270000000000 Sb
   0.8745140000000000    0.0503930000000000    0.7852730000000000 Sb
   0.1372530000000000    0.0389430000000000    0.7071550000000000 H
   0.9433070000000000    0.9610600000000000    0.3690660000000000 H
   0.6372530000000000    0.9610569999999991    0.7928449999999990 H
   0.1175910000000000    0.2554869999999990    0.5237880000000000 H
   0.4433070000000000    0.0389400000000000    0.1309340000000000 H
   0.8627469999999990    0.9610569999999991    0.2928449999999990 H
   0.3627470000000000    0.0389430000000000    0.2071549999999990 H
   0.8824090000000000    0.7445130000000000    0.4762119999999990 H
   0.3824090000000000    0.2554869999999990    0.0237880000000000 H
   0.5566930000000000    0.9610600000000000    0.8690660000000000 H
   0.6175910000000000    0.7445130000000000    0.9762120000000000 H
   0.0566930000000000    0.0389400000000000    0.6309340000000000 H
   0.8904170000000000    0.9219619999999999    0.3915760000000000 C
   0.3904169999999990    0.0780380000000000    0.1084239999999990 C
   0.6095830000000000    0.9219619999999999    0.8915759999999990 C
   0.1095830000000000    0.0780380000000000    0.6084240000000000 C
   0.6444449999999990    0.0898709999999990    0.9623919999999990 S
   0.8555550000000000    0.0898709999999990    0.4623919999999990 S
   0.3555550000000000    0.9101290000000000    0.0376079999999990 S
   0.1444450000000000    0.9101290000000000    0.5376080000000000 S
   0.6564840000000000    0.0456680000000000    0.5016969999999999 Cl
   0.3435160000000000    0.9543320000000000    0.4983030000000000 Cl
   0.2066240000000000    0.6681300000000000    0.3595410000000000 Cl
   0.5407700000000001    0.7737229999999991    0.3911239999999990 Cl
   0.7933760000000000    0.3318700000000000    0.6404590000000000 Cl
   0.6235889999999999    0.4059020000000000    0.7912110000000000 Cl
   0.2933759999999990    0.6681300000000000    0.8595410000000000 Cl
   0.5452239999999990    0.3443580000000000    0.2142980000000000 Cl
   0.7066239999999990    0.3318700000000000    0.1404590000000000 Cl
   0.7034009999999991    0.7625810000000000    0.3173570000000000 Cl
   0.4592300000000000    0.2262769999999990    0.6088760000000000 Cl
   0.3764110000000000    0.5940980000000000    0.2087890000000000 Cl
   0.2965990000000000    0.2374190000000000    0.6826430000000000 Cl
   0.0452240000000000    0.6556419999999999    0.2857020000000000 Cl
   0.2034010000000000    0.2374190000000000    0.1826430000000000 Cl
   0.8435159999999990    0.0456680000000000    0.0016970000000000 Cl
   0.4547759999999990    0.6556419999999999    0.7857020000000000 Cl
   0.7965989999999999    0.7625810000000000    0.8173570000000000 Cl
   0.9592300000000000    0.7737229999999991    0.8911239999999990 Cl
   0.8764109999999991    0.4059020000000000    0.2912110000000000 Cl
   0.1564839999999990    0.9543320000000000    0.9983029999999991 Cl
   0.0407700000000000    0.2262769999999990    0.1088760000000000 Cl
   0.1235889999999990    0.5940980000000000    0.7087890000000000 Cl
   0.9547760000000000    0.3443580000000000    0.7142980000000000 Cl
   0.0947000000000000    0.9521440000000000    0.4172229999999990 O
   0.9053000000000000    0.0478559999999990    0.5827770000000000 O
   0.5947000000000000    0.0478559999999990    0.0827769999999990 O
   0.4053000000000000    0.9521440000000000    0.9172230000000000 O
