Rb4 Bi12 Se20
1.0
   4.1664426099999998   -0.0000000000000000    0.0000000000000000
  -0.0000000000000000   12.4648010100000004    0.0000000000000000
   0.0000000000000000    0.0000000000000000   22.1800772200000011
Rb Bi Se
4 12 20
direct
   0.2500000000000000    0.4902534400000000    0.2123614500000000 Rb
   0.7500000000000000    0.5097465600000000    0.7876385500000000 Rb
   0.7500000000000000    0.9902534400000000    0.2876385500000000 Rb
   0.2500000000000000    0.0097465600000000    0.7123614500000001 Rb
   0.2500000000000000    0.3638156900000000    0.0253941700000000 Bi
   0.7500000000000000    0.6361843100000000    0.9746058300000000 Bi
   0.7500000000000000    0.8638156900000000    0.4746058300000000 Bi
   0.2500000000000000    0.1361843100000000    0.5253941700000000 Bi
   0.2500000000000000    0.8034563000000000    0.1265703700000000 Bi
   0.7500000000000000    0.1965437000000000    0.8734296300000001 Bi
   0.7500000000000000    0.3034563000000000    0.3734296300000000 Bi
   0.2500000000000000    0.6965437000000000    0.6265703700000000 Bi
   0.2500000000000000    0.5926822700000001    0.4242891100000000 Bi
   0.7500000000000000    0.4073177300000000    0.5757108900000000 Bi
   0.7500000000000000    0.0926822700000000    0.0757108900000000 Bi
   0.2500000000000000    0.9073177300000000    0.9242891100000000 Bi
   0.2500000000000000    0.8058247100000000    0.3854629600000000 Se
   0.7500000000000000    0.1941752900000000    0.6145370400000000 Se
   0.7500000000000000    0.3058247100000000    0.1145370400000000 Se
   0.2500000000000000    0.6941752900000000    0.8854629600000000 Se
   0.2500000000000000    0.2483799400000000    0.2958403000000000 Se
   0.7500000000000000    0.7516200600000000    0.7041596999999991 Se
   0.7500000000000000    0.7483799400000000    0.2041597000000000 Se
   0.2500000000000000    0.2516200600000000    0.7958402999999999 Se
   0.2500000000000000    0.3610268600000000    0.4804993600000000 Se
   0.7500000000000000    0.6389731400000001    0.5195006400000000 Se
   0.7500000000000000    0.8610268600000001    0.0195006400000000 Se
   0.2500000000000000    0.1389731400000000    0.9804993600000000 Se
   0.2500000000000000    0.0252540600000000    0.1588257700000000 Se
   0.7500000000000000    0.9747459400000000    0.8411742300000000 Se
   0.7500000000000000    0.5252540600000000    0.3411742300000000 Se
   0.2500000000000000    0.4747459400000000    0.6588257700000000 Se
   0.2500000000000000    0.5840429700000001    0.0641113500000000 Se
   0.7500000000000000    0.4159570300000000    0.9358886500000000 Se
   0.7500000000000000    0.0840429700000000    0.4358886500000000 Se
   0.2500000000000000    0.9159570300000001    0.5641113500000000 Se
