Cu12 Bi8 S16 Br4
1.0
   0.0000000000000000    0.0000000000000000   -4.0404179999999998
   0.0000000000000000  -10.4623950000000008    0.0000000000000000
 -21.0621609999999997    0.0000000000000000    0.0000000000000000
Cu Bi S Br
12 8 16 4
direct
   0.3405100000000000    0.3769920000000000    0.1254710000000000 Cu
   0.8405100000000001    0.6230080000000000    0.3745290000000000 Cu
   0.6594900000000000    0.1230079999999990    0.6254710000000000 Cu
   0.1594900000000000    0.8769920000000000    0.8745290000000000 Cu
   0.2781240000000000    0.7708579999999990    0.0340120000000000 Cu
   0.7781239999999990    0.2291419999999990    0.4659879999999990 Cu
   0.7218760000000000    0.7291420000000000    0.5340119999999990 Cu
   0.2218760000000000    0.2708580000000000    0.9659880000000000 Cu
   0.9396669999999990    0.4822650000000000    0.0393520000000000 Cu
   0.4396670000000000    0.5177349999999999    0.4606480000000000 Cu
   0.0603330000000000    0.0177350000000000    0.5393519999999991 Cu
   0.5603330000000000    0.9822649999999991    0.9606479999999999 Cu
   0.7617780000000000    0.0639870000000000    0.1252150000000000 Bi
   0.2617780000000000    0.9360130000000000    0.3747850000000000 Bi
   0.2382220000000000    0.4360130000000000    0.6252150000000000 Bi
   0.7382219999999990    0.5639870000000000    0.8747849999999990 Bi
   0.8373950000000000    0.6390120000000000    0.1978390000000000 Bi
   0.3373950000000000    0.3609880000000000    0.3021610000000000 Bi
   0.1626050000000000    0.8609880000000000    0.6978390000000000 Bi
   0.6626050000000000    0.1390120000000000    0.8021610000000000 Bi
   0.2619910000000000    0.1977350000000000    0.0710980000000000 S
   0.7619910000000000    0.8022650000000000    0.4289020000000000 S
   0.7380089999999990    0.3022650000000000    0.5710980000000000 S
   0.2380090000000000    0.6977350000000000    0.9289020000000000 S
   0.2534210000000000    0.5919800000000001    0.1028309999999990 S
   0.7534210000000000    0.4080200000000000    0.3971690000000000 S
   0.7465790000000000    0.9080200000000000    0.6028310000000000 S
   0.2465790000000000    0.0919800000000000    0.8971690000000000 S
   0.7531550000000000    0.3868270000000000    0.2034949999999990 S
   0.2531549999999990    0.6131730000000000    0.2965049999999990 S
   0.2468449999999990    0.1131730000000000    0.7034950000000000 S
   0.7468450000000000    0.8868269999999990    0.7965050000000000 S
   0.7740180000000000    0.8825780000000000    0.0405480000000000 S
   0.2740180000000000    0.1174220000000000    0.4594519999999990 S
   0.2259820000000000    0.6174220000000000    0.5405480000000000 S
   0.7259820000000000    0.3825780000000000    0.9594520000000000 S
   0.2606230000000000    0.8898779999999999    0.1989030000000000 Br
   0.7606229999999990    0.1101220000000000    0.3010970000000000 Br
   0.7393770000000000    0.6101219999999991    0.6989029999999991 Br
   0.2393769999999990    0.3898780000000000    0.8010969999999999 Br
