Sb4 S6 O24
1.0
   4.5615569999999996    7.0162639999999996    0.0000000000000000
  -4.5615569999999996    7.0162639999999996    0.0000000000000000
   0.0000000000000000    4.0445890000000002    8.3692449999999994
Sb S O
4 6 24
direct
   0.3712720000000000    0.8560989999999991    0.4730379999999990 Sb
   0.8560989999999991    0.3712720000000000    0.9730380000000000 Sb
   0.1439010000000000    0.6287280000000000    0.0269620000000000 Sb
   0.6287280000000000    0.1439010000000000    0.5269619999999990 Sb
   0.7546510000000000    0.5440100000000000    0.3265500000000000 S
   0.5440100000000000    0.7546510000000000    0.8265500000000001 S
   0.0605560000000000    0.9394439999999999    0.2500000000000000 S
   0.9394439999999999    0.0605560000000000    0.7500000000000000 S
   0.4559900000000001    0.2453489999999990    0.1734500000000000 S
   0.2453489999999990    0.4559900000000001    0.6734500000000001 S
   0.8906750000000000    0.9485709999999991    0.3760100000000000 O
   0.9485709999999991    0.8906750000000000    0.8760100000000001 O
   0.8620430000000000    0.5112070000000000    0.4304059999999990 O
   0.6106730000000000    0.7290800000000001    0.3111660000000000 O
   0.8659140000000000    0.5408010000000000    0.1560160000000000 O
   0.5112070000000000    0.8620430000000000    0.9304060000000000 O
   0.2152750000000000    0.8938739999999999    0.3198979999999990 O
   0.6554000000000000    0.4073380000000000    0.3781410000000000 O
   0.7290800000000001    0.6106730000000000    0.8111659999999991 O
   0.5408010000000000    0.8659140000000000    0.6560159999999990 O
   0.8938739999999999    0.2152750000000000    0.8198980000000000 O
   0.5926620000000000    0.3446000000000000    0.1218590000000000 O
   0.4073380000000000    0.6554000000000000    0.8781409999999999 O
   0.1061260000000000    0.7847250000000000    0.1801019999999990 O
   0.4591989999999990    0.1340859999999990    0.3439840000000000 O
   0.2709200000000000    0.3893270000000000    0.1888340000000000 O
   0.3446000000000000    0.5926620000000000    0.6218589999999991 O
   0.7847250000000000    0.1061260000000000    0.6801020000000000 O
   0.4887930000000000    0.1379570000000000    0.0695940000000000 O
   0.1340859999999990    0.4591989999999990    0.8439840000000000 O
   0.3893270000000000    0.2709200000000000    0.6888339999999999 O
   0.1379570000000000    0.4887930000000000    0.5695939999999990 O
   0.0514289999999990    0.1093249999999990    0.1239900000000000 O
   0.1093249999999990    0.0514289999999990    0.6239900000000000 O
