Na12 As4 Se12
1.0
   8.8847356400000006    0.0000000000000000    0.0000000000000000
   0.0000000000000000    8.8847356400000006   -0.0000000000000000
  -0.0000000000000000   -0.0000000000000000    8.8847356400000006
Na As Se
12 4 12
direct
   0.8216907300000000    0.1783092700000000    0.6783092700000000 Na
   0.6783092700000000    0.8216907300000000    0.1783092700000000 Na
   0.1783092700000000    0.6783092700000000    0.8216907300000000 Na
   0.3216907300000000    0.3216907300000000    0.3216907300000000 Na
   0.1855057500000000    0.3144942500000000    0.6855057500000000 Na
   0.3144942500000000    0.6855057500000000    0.1855057500000000 Na
   0.6855057500000000    0.1855057500000000    0.3144942500000000 Na
   0.8144942500000000    0.8144942500000000    0.8144942500000000 Na
   0.4150767500000000    0.0849232500000000    0.9150767500000000 Na
   0.0849232500000000    0.9150767500000000    0.4150767500000000 Na
   0.9150767500000000    0.4150767500000000    0.0849232500000000 Na
   0.5849232500000000    0.5849232500000000    0.5849232500000000 Na
   0.0283962500000000    0.0283962500000000    0.0283962500000000 As
   0.4716037500000000    0.9716037500000000    0.5283962500000000 As
   0.9716037500000000    0.5283962500000000    0.4716037500000000 As
   0.5283962500000000    0.4716037500000000    0.9716037500000000 As
   0.2714505000000000    0.3901484600000000    0.9997331700000001 Se
   0.7714504999999990    0.1098515400000000    0.0002668300000000 Se
   0.7285495000000000    0.8901484600000000    0.5002668300000001 Se
   0.1098515400000000    0.0002668300000000    0.7714504999999990 Se
   0.5002668300000001    0.7285495000000000    0.8901484600000000 Se
   0.0002668300000000    0.7714504999999990    0.1098515400000000 Se
   0.3901484600000000    0.9997331700000001    0.2714505000000000 Se
   0.9997331700000001    0.2714505000000000    0.3901484600000000 Se
   0.8901484600000000    0.5002668300000001    0.7285495000000000 Se
   0.6098515400000000    0.4997331700000000    0.2285495000000000 Se
   0.4997331700000000    0.2285495000000000    0.6098515400000000 Se
   0.2285495000000000    0.6098515400000000    0.4997331700000000 Se
