Sb4 S32 N24 Cl20
1.0
  18.5194590000000012    0.0000000000000000    0.0000000000000000
   0.0000000000000000    9.7168200000000002    0.0000000000000000
   0.0000000000000000    4.1849970000000001   10.8045799999999996
Sb S N Cl
4 32 24 20
direct
   0.2336990000000000    0.9842200000000001    0.1006070000000000 Sb
   0.7336990000000000    0.0157800000000000    0.3993930000000000 Sb
   0.7663010000000000    0.0157800000000000    0.8993930000000000 Sb
   0.2663010000000000    0.9842200000000001    0.6006070000000000 Sb
   0.1000860000000000    0.5646669999999990    0.4648350000000000 S
   0.6000860000000000    0.4353329999999990    0.0351650000000000 S
   0.8999140000000000    0.4353329999999990    0.5351650000000000 S
   0.3999140000000000    0.5646669999999990    0.9648350000000000 S
   0.2116100000000000    0.5942220000000000    0.4229279999999990 S
   0.7116100000000001    0.4057779999999990    0.0770720000000000 S
   0.7883900000000000    0.4057779999999990    0.5770720000000000 S
   0.2883900000000000    0.5942220000000000    0.9229280000000000 S
   0.0533490000000000    0.6822220000000000    0.9546190000000000 S
   0.5533490000000000    0.3177780000000000    0.5453810000000000 S
   0.9466509999999990    0.3177780000000000    0.0453810000000000 S
   0.4466509999999990    0.6822220000000000    0.4546190000000000 S
   0.0682489999999990    0.9086800000000000    0.9230389999999991 S
   0.5682490000000000    0.0913200000000000    0.5769609999999999 S
   0.9317510000000000    0.0913200000000000    0.0769610000000000 S
   0.4317510000000000    0.9086800000000000    0.4230390000000000 S
   0.1131570000000000    0.3857680000000000    0.7380089999999990 S
   0.6131570000000000    0.6142320000000000    0.7619910000000000 S
   0.8868429999999990    0.6142320000000000    0.2619910000000000 S
   0.3868430000000000    0.3857680000000000    0.2380090000000000 S
   0.2313279999999990    0.4248000000000000    0.1781800000000000 S
   0.7313280000000000    0.5752000000000000    0.3218200000000001 S
   0.7686719999999990    0.5752000000000000    0.8218200000000001 S
   0.2686719999999990    0.4248000000000000    0.6781800000000000 S
   0.0292690000000000    0.2838259999999990    0.2776530000000000 S
   0.5292690000000000    0.7161740000000000    0.2223470000000000 S
   0.9707310000000000    0.7161740000000000    0.7223470000000000 S
   0.4707309999999990    0.2838259999999990    0.7776529999999990 S
   0.0066300000000000    0.9679719999999991    0.3234229999999990 S
   0.5066300000000000    0.0320280000000000    0.1765769999999990 S
   0.9933700000000001    0.0320280000000000    0.6765770000000000 S
   0.4933700000000000    0.9679719999999991    0.8234230000000000 S
   0.0835340000000000    0.4732849999999990    0.6054510000000000 N
   0.5835340000000000    0.5267149999999990    0.8945489999999990 N
   0.9164660000000000    0.5267149999999990    0.3945490000000000 N
   0.4164660000000000    0.4732849999999990    0.1054509999999990 N
   0.1974409999999990    0.3746879999999990    0.7562460000000000 N
   0.6974410000000000    0.6253120000000000    0.7437539999999990 N
   0.8025589999999990    0.6253120000000000    0.2437540000000000 N
   0.3025589999999990    0.3746879999999990    0.2562460000000000 N
   0.2393340000000000    0.5185100000000000    0.0384720000000000 N
   0.7393339999999990    0.4814900000000000    0.4615280000000000 N
   0.7606660000000000    0.4814900000000000    0.9615279999999991 N
   0.2606660000000000    0.5185100000000000    0.5384720000000000 N
   0.0108670000000000    0.6516800000000000    0.8487049999999990 N
   0.5108670000000000    0.3483200000000000    0.6512950000000000 N
   0.9891329999999990    0.3483200000000000    0.1512949999999990 N
   0.4891330000000000    0.6516800000000000    0.3487050000000000 N
   0.0318710000000000    0.1114800000000000    0.3458839999999990 N
   0.5318710000000000    0.8885200000000001    0.1541160000000000 N
   0.9681289999999991    0.8885200000000001    0.6541159999999990 N
   0.4681289999999990    0.1114800000000000    0.8458840000000000 N
   0.0367080000000000    0.0122210000000000    0.7956100000000000 N
   0.5367080000000000    0.9877790000000000    0.7043900000000001 N
   0.9632919999999990    0.9877790000000000    0.2043900000000000 N
   0.4632920000000000    0.0122210000000000    0.2956100000000000 N
   0.1631790000000000    0.7853570000000000    0.6650579999999990 Cl
   0.6631790000000000    0.2146430000000000    0.8349420000000000 Cl
   0.8368209999999990    0.2146430000000000    0.3349419999999990 Cl
   0.3368210000000000    0.7853570000000000    0.1650579999999990 Cl
   0.1217220000000000    0.7335769999999990    0.1865069999999990 Cl
   0.6217220000000000    0.2664229999999990    0.3134929999999990 Cl
   0.8782780000000000    0.2664229999999990    0.8134929999999990 Cl
   0.3782780000000000    0.7335769999999990    0.6865070000000000 Cl
   0.1270730000000000    0.1782010000000000    0.0488300000000000 Cl
   0.6270730000000000    0.8217989999999999    0.4511700000000000 Cl
   0.8729270000000000    0.8217989999999999    0.9511700000000001 Cl
   0.3729270000000000    0.1782010000000000    0.5488300000000000 Cl
   0.1750080000000000    0.1863500000000000    0.5339309999999990 Cl
   0.6750079999999991    0.8136500000000001    0.9660690000000000 Cl
   0.8249919999999999    0.8136500000000001    0.4660689999999990 Cl
   0.3249920000000000    0.1863500000000000    0.0339309999999990 Cl
   0.2312610000000000    0.9846539999999990    0.3094760000000000 Cl
   0.7312609999999991    0.0153459999999990    0.1905240000000000 Cl
   0.7687390000000000    0.0153459999999990    0.6905239999999990 Cl
   0.2687390000000000    0.9846539999999990    0.8094760000000000 Cl
