Na12 As4 S12
1.0
   8.5153241699999995   -0.0000000000000000    0.0000000000000000
  -0.0000000000000000    8.5153241699999995    0.0000000000000000
  -0.0000000000000000   -0.0000000000000000    8.5153241699999995
Na As S
12 4 12
direct
   0.5807813100000000    0.5807813100000000    0.5807813100000000 Na
   0.9192186900000000    0.4192186900000000    0.0807813100000000 Na
   0.0807813100000000    0.9192186900000000    0.4192186900000000 Na
   0.4192186900000000    0.0807813100000000    0.9192186900000000 Na
   0.3174304000000000    0.3174304000000000    0.3174304000000000 Na
   0.1825696000000000    0.6825696000000000    0.8174304000000000 Na
   0.8174304000000000    0.1825696000000000    0.6825696000000000 Na
   0.6825696000000000    0.8174304000000000    0.1825696000000000 Na
   0.8105939300000000    0.8105939300000000    0.8105939300000000 Na
   0.6894060700000000    0.1894060700000000    0.3105939300000000 Na
   0.3105939300000000    0.6894060700000000    0.1894060700000000 Na
   0.1894060700000000    0.3105939300000000    0.6894060700000000 Na
   0.9722784300000000    0.5277215700000000    0.4722784300000000 As
   0.4722784300000000    0.9722784300000000    0.5277215700000000 As
   0.0277215700000000    0.0277215700000000    0.0277215700000000 As
   0.5277215700000000    0.4722784300000000    0.9722784300000000 As
   0.7749408000000000    0.1050226700000000    0.0012372200000000 S
   0.7250592000000000    0.8949773300000000    0.5012372200000000 S
   0.2749408000000000    0.3949773300000000    0.9987627800000001 S
   0.1050226700000000    0.0012372200000000    0.7749408000000000 S
   0.2250592000000000    0.6050226700000000    0.4987627800000000 S
   0.4987627800000000    0.2250592000000000    0.6050226700000000 S
   0.6050226700000000    0.4987627800000000    0.2250592000000000 S
   0.8949773300000000    0.5012372200000000    0.7250592000000000 S
   0.9987627800000001    0.2749408000000000    0.3949773300000000 S
   0.3949773300000000    0.9987627800000001    0.2749408000000000 S
   0.0012372200000000    0.7749408000000000    0.1050226700000000 S
   0.5012372200000000    0.7250592000000000    0.8949773300000000 S
