Cs3 Bi7 Se12
1.0
   2.1420979999999998   13.8924369999999993    0.0000000000000000
  -2.1420979999999998   13.8924369999999993    0.0000000000000000
   0.0000000000000000    3.9479709999999999   12.8235229999999998
Cs Bi Se
3 7 12
direct
   0.6378600000000001    0.6378600000000001    0.1206300000000000 Cs
   0.3654540000000000    0.3654540000000000    0.8678279999999990 Cs
   0.0268790000000000    0.0268790000000000    0.4271010000000000 Cs
   0.3191850000000000    0.3191850000000000    0.5208950000000000 Bi
   0.7227870000000000    0.7227870000000000    0.7848780000000000 Bi
   0.0864320000000000    0.0864320000000000    0.7410610000000000 Bi
   0.2782090000000000    0.2782090000000000    0.2133320000000000 Bi
   0.9119269999999990    0.9119269999999990    0.2581509999999990 Bi
   0.6806860000000000    0.6806860000000000    0.4790480000000000 Bi
   0.5002529999999999    0.5002529999999999    0.9986300000000001 Bi
   0.5765859999999990    0.5765859999999990    0.5913340000000000 Se
   0.7986070000000000    0.7986070000000000    0.3790100000000000 Se
   0.2299820000000000    0.2299820000000000    0.9168269999999999 Se
   0.7703160000000000    0.7703160000000000    0.0826800000000000 Se
   0.8277820000000000    0.8277820000000000    0.6669149999999990 Se
   0.1700440000000000    0.1700440000000000    0.3334760000000000 Se
   0.6060909999999990    0.6060909999999990    0.8755560000000000 Se
   0.9824489999999991    0.9824489999999991    0.8579819999999990 Se
   0.3920530000000000    0.3920530000000000    0.1239089999999990 Se
   0.0180910000000000    0.0180910000000000    0.1421049999999990 Se
   0.4235770000000000    0.4235770000000000    0.4071809999999990 Se
   0.2014020000000000    0.2014020000000000    0.6204689999999990 Se
