Li3 Sb1 S4
1.0
   6.1620650000000001    0.0000000000000000    0.0000000000000000
   0.0000000000000000    6.1620650000000001    0.0000000000000000
   0.0000000000000000    0.0000000000000000    6.1620650000000001
Li Sb S
3 1 4
direct
   0.0000000000000000    0.0000000000000000    0.5000000000000000 Li
   0.0000000000000000    0.5000000000000000    0.0000000000000000 Li
   0.5000000000000000    0.0000000000000000    0.0000000000000000 Li
   0.0000000000000000    0.0000000000000000    0.0000000000000000 Sb
   0.2203429999999990    0.2203429999999990    0.2203429999999990 S
   0.2203429999999990    0.7796569999999990    0.7796569999999990 S
   0.7796569999999990    0.2203429999999990    0.7796569999999990 S
   0.7796569999999990    0.7796569999999990    0.2203429999999990 S
