Li12 Bi4 S12
1.0
  12.4291459999999994    0.0000000000000000    0.0000000000000000
   0.0000000000000000    4.0115049999999997    0.0000000000000000
   0.0000000000000000    2.9383249999999999   11.8146909999999998
Li Bi S
12 4 12
direct
   0.4580619999999990    0.8792329999999990    0.6191460000000000 Li
   0.9697640000000000    0.7751089999999990    0.6050789999999990 Li
   0.2192300000000000    0.4886009999999991    0.0260010000000000 Li
   0.0419379999999990    0.8792329999999990    0.1191459999999990 Li
   0.5302359999999990    0.7751089999999990    0.1050789999999990 Li
   0.7192300000000000    0.5113989999999990    0.4739990000000000 Li
   0.2807700000000000    0.4886009999999991    0.5260009999999991 Li
   0.4697639999999990    0.2248909999999990    0.8949210000000000 Li
   0.9580620000000000    0.1207670000000000    0.8808539999999990 Li
   0.7807700000000001    0.5113989999999990    0.9739989999999999 Li
   0.0302360000000000    0.2248909999999990    0.3949209999999990 Li
   0.5419380000000000    0.1207670000000000    0.3808539999999990 Li
   0.7069310000000000    0.1165139999999990    0.7509620000000000 Bi
   0.7930689999999990    0.1165139999999990    0.2509619999999990 Bi
   0.2069310000000000    0.8834860000000000    0.7490380000000000 Bi
   0.2930689999999990    0.8834860000000000    0.2490379999999990 Bi
   0.6463880000000000    0.9316019999999990    0.5692429999999991 S
   0.5938270000000000    0.7011120000000000    0.9084490000000000 S
   0.8536119999999990    0.9316019999999990    0.0692430000000000 S
   0.8763460000000000    0.7039540000000000    0.7880990000000000 S
   0.9061730000000000    0.7011120000000000    0.4084490000000000 S
   0.6236539999999990    0.7039540000000000    0.2880990000000000 S
   0.3763459999999990    0.2960460000000000    0.7119010000000000 S
   0.0938270000000000    0.2988880000000000    0.5915509999999990 S
   0.1236540000000000    0.2960460000000000    0.2119009999999990 S
   0.1463880000000000    0.0683980000000000    0.9307569999999999 S
   0.4061730000000000    0.2988880000000000    0.0915510000000000 S
   0.3536120000000000    0.0683980000000000    0.4307570000000000 S
