Ba16 La4 Ge12 Sb4 Se52
1.0
  12.6926880000000004    0.0000000000000000    0.0000000000000000
   0.0000000000000000   13.2074789999999993    0.0000000000000000
   0.0000000000000000    3.9100470000000001   16.1450509999999987
Ba La Ge Sb Se
16 4 12 4 52
direct
   0.3158439999999990    0.8444389999999991    0.3641649999999990 Ba
   0.6768459999999999    0.5452060000000000    0.0522819999999990 Ba
   0.8231539999999991    0.0452059999999990    0.0522819999999990 Ba
   0.3305050000000000    0.7710460000000000    0.7432700000000001 Ba
   0.1768460000000000    0.9547939999999990    0.9477179999999999 Ba
   0.8158440000000000    0.6555609999999999    0.6358349999999990 Ba
   0.1694949999999990    0.2710460000000000    0.7432700000000001 Ba
   0.8270419999999991    0.3528650000000000    0.8479559999999990 Ba
   0.6729579999999999    0.8528650000000000    0.8479559999999990 Ba
   0.3270420000000000    0.1471350000000000    0.1520439999999990 Ba
   0.3231540000000000    0.4547940000000000    0.9477179999999999 Ba
   0.1841560000000000    0.3444390000000000    0.3641649999999990 Ba
   0.6841560000000000    0.1555610000000000    0.6358349999999990 Ba
   0.6694950000000000    0.2289540000000000    0.2567300000000000 Ba
   0.8305049999999990    0.7289540000000000    0.2567300000000000 Ba
   0.1729580000000000    0.6471350000000000    0.1520439999999990 Ba
   0.5220049999999991    0.5471530000000000    0.3566280000000000 La
   0.9779949999999999    0.0471530000000000    0.3566280000000000 La
   0.4779950000000000    0.4528470000000000    0.6433719999999991 La
   0.0220050000000000    0.9528470000000000    0.6433719999999991 La
   0.3828789999999990    0.0764880000000000    0.6700550000000000 Ge
   0.2327409999999990    0.0614010000000000    0.4849880000000000 Ge
   0.5902860000000000    0.5781120000000000    0.8189409999999990 Ge
   0.8828790000000000    0.4235120000000000    0.3299450000000000 Ge
   0.7327410000000000    0.4385989999999990    0.5150120000000000 Ge
   0.0902859999999990    0.9218879999999990    0.1810590000000000 Ge
   0.4097139999999990    0.4218880000000000    0.1810590000000000 Ge
   0.9097139999999990    0.0781120000000000    0.8189409999999990 Ge
   0.2672589999999990    0.5614009999999990    0.4849880000000000 Ge
   0.7672589999999990    0.9385990000000000    0.5150120000000000 Ge
   0.6171209999999990    0.9235120000000000    0.3299450000000000 Ge
   0.1171209999999990    0.5764880000000000    0.6700550000000000 Ge
   0.9820859999999991    0.3644770000000000    0.0807720000000000 Sb
   0.5179140000000000    0.8644769999999991    0.0807720000000000 Sb
   0.4820859999999990    0.1355230000000000    0.9192290000000000 Sb
   0.0179140000000000    0.6355229999999999    0.9192290000000000 Sb
   0.5138110000000000    0.9503180000000000    0.6804570000000000 Se
   0.4910040000000000    0.6585529999999991    0.9093819999999990 Se
   0.9437289999999990    0.1639540000000000    0.6800560000000000 Se
   0.0548510000000000    0.4395320000000000    0.9163610000000000 Se
   0.6197760000000000    0.8455159999999990    0.4788530000000000 Se
   0.0562709999999990    0.8360460000000000    0.3199440000000000 Se
   0.2178439999999990    0.0155939999999990    0.7381059999999990 Se
   0.7845380000000000    0.9073960000000000    0.6632770000000000 Se
   0.0432510000000000    0.1007830000000000    0.1623570000000000 Se
   0.5548510000000000    0.0604679999999990    0.0836389999999990 Se
   0.8802240000000000    0.3455160000000000    0.4788530000000000 Se
   0.4437290000000000    0.3360460000000000    0.3199440000000000 Se
   0.7902119999999990    0.3076240000000000    0.0535190000000000 Se
   0.7154619999999990    0.4073960000000000    0.6632770000000000 Se
   0.9419470000000000    0.2843009999999990    0.2692540000000000 Se
   0.2902119999999990    0.1923760000000000    0.9464809999999991 Se
   0.4419470000000000    0.2156990000000000    0.7307460000000000 Se
   0.2821559999999990    0.5155940000000000    0.7381059999999990 Se
   0.5089960000000000    0.3414470000000000    0.0906179999999990 Se
   0.9861890000000000    0.4503180000000000    0.6804570000000000 Se
   0.7097880000000000    0.8076240000000000    0.0535190000000000 Se
   0.0138109999999990    0.5496820000000000    0.3195429999999990 Se
   0.3802240000000000    0.1544839999999990    0.5211470000000000 Se
   0.2272010000000000    0.3973600000000000    0.1491960000000000 Se
   0.7178439999999990    0.4844060000000000    0.2618940000000000 Se
   0.2097880000000000    0.6923760000000000    0.9464809999999991 Se
   0.2154620000000000    0.0926039999999990    0.3367230000000000 Se
   0.4312189999999990    0.6425510000000000    0.5032369999999990 Se
   0.9910040000000000    0.8414469999999999    0.0906179999999990 Se
   0.0687810000000000    0.1425509999999990    0.5032369999999990 Se
   0.2727990000000000    0.8973600000000000    0.1491960000000000 Se
   0.5562710000000000    0.6639539999999990    0.6800560000000000 Se
   0.5432509999999990    0.3992170000000000    0.8376429999999990 Se
   0.4451489999999990    0.9395319999999990    0.9163610000000000 Se
   0.2216950000000000    0.8838130000000000    0.5484289999999991 Se
   0.7821560000000000    0.9844060000000000    0.2618940000000000 Se
   0.2783049999999990    0.3838129999999990    0.5484289999999991 Se
   0.9567490000000000    0.8992169999999990    0.8376429999999990 Se
   0.5687810000000000    0.3574489999999990    0.4967629999999990 Se
   0.2845380000000000    0.5926040000000000    0.3367230000000000 Se
   0.0089959999999990    0.1585530000000000    0.9093819999999990 Se
   0.7216950000000000    0.6161869999999990    0.4515710000000000 Se
   0.9312189999999990    0.8574489999999990    0.4967629999999990 Se
   0.9451489999999991    0.5604680000000000    0.0836389999999990 Se
   0.0580530000000000    0.7156990000000000    0.7307460000000000 Se
   0.4861890000000000    0.0496820000000000    0.3195429999999990 Se
   0.4567489999999990    0.6007830000000000    0.1623570000000000 Se
   0.7783049999999990    0.1161870000000000    0.4515710000000000 Se
   0.7727990000000000    0.6026400000000001    0.8508040000000000 Se
   0.5580530000000000    0.7843009999999990    0.2692540000000000 Se
   0.7272010000000000    0.1026400000000000    0.8508040000000000 Se
   0.1197760000000000    0.6544840000000000    0.5211470000000000 Se
