As4 Pb9 S15
1.0
   5.8492329999999999   -9.0518660000000004    0.0000000000000000
   5.8492329999999999    9.0518660000000004    0.0000000000000000
  -8.1588060000000002    0.0000000000000000    7.0415679999999998
As Pb S
4 9 15
direct
   0.0559370000000000    0.0559370000000000    0.0559370000000000 As
   0.4074890000000000    0.8424670000000000    0.4074890000000000 As
   0.4074890000000000    0.4074890000000000    0.8424670000000000 As
   0.8424670000000000    0.4074890000000000    0.4074890000000000 As
   0.5982339999999990    0.3343649999999990    0.5982339999999990 Pb
   0.5982339999999990    0.5982339999999990    0.3343649999999990 Pb
   0.3343649999999990    0.5982339999999990    0.5982339999999990 Pb
   0.2433270000000000    0.7744200000000001    0.9785769999999990 Pb
   0.9785769999999990    0.2433270000000000    0.7744200000000001 Pb
   0.7744200000000001    0.9785769999999990    0.2433270000000000 Pb
   0.2433270000000000    0.9785769999999990    0.7744200000000001 Pb
   0.7744200000000001    0.2433270000000000    0.9785769999999990 Pb
   0.9785769999999990    0.7744200000000001    0.2433270000000000 Pb
   0.9217329999999990    0.4751729999999990    0.9217329999999990 S
   0.9217329999999990    0.9217329999999990    0.4751729999999990 S
   0.4751729999999990    0.9217329999999990    0.9217329999999990 S
   0.1290210000000000    0.3224280000000000    0.1290210000000000 S
   0.1290210000000000    0.1290210000000000    0.3224280000000000 S
   0.3224280000000000    0.1290210000000000    0.1290210000000000 S
   0.6313960000000000    0.8878090000000000    0.6313960000000000 S
   0.6313960000000000    0.6313960000000000    0.8878090000000000 S
   0.8878090000000000    0.6313960000000000    0.6313960000000000 S
   0.5862370000000000    0.0397210000000000    0.3948029999999990 S
   0.3948029999999990    0.5862370000000000    0.0397210000000000 S
   0.0397210000000000    0.3948029999999990    0.5862370000000000 S
   0.5862370000000000    0.3948029999999990    0.0397210000000000 S
   0.3948029999999990    0.0397210000000000    0.5862370000000000 S
   0.0397210000000000    0.5862370000000000    0.3948029999999990 S
