Na12 Sb4 S16 O36
1.0
  11.1964360000000003    0.0000000000000000    0.0000000000000000
   0.0000000000000000   11.1964360000000003    0.0000000000000000
   0.0000000000000000    0.0000000000000000   11.1964360000000003
Na Sb S O
12 4 16 36
direct
   0.2605490000000000    0.7605489999999990    0.7394510000000000 Na
   0.7605489999999990    0.7394510000000000    0.2605490000000000 Na
   0.7394510000000000    0.2605490000000000    0.7605489999999990 Na
   0.2394510000000000    0.2394510000000000    0.2394510000000000 Na
   0.0927549999999990    0.5927549999999990    0.9072450000000000 Na
   0.5927549999999990    0.9072450000000000    0.0927549999999990 Na
   0.9072450000000000    0.0927549999999990    0.5927549999999990 Na
   0.4072449999999990    0.4072449999999990    0.4072449999999990 Na
   0.8934249999999990    0.3934249999999990    0.1065749999999990 Na
   0.3934249999999990    0.1065749999999990    0.8934249999999990 Na
   0.1065749999999990    0.8934249999999990    0.3934249999999990 Na
   0.6065750000000000    0.6065750000000000    0.6065750000000000 Na
   0.5183430000000000    0.0183429999999990    0.4816570000000000 Sb
   0.0183429999999990    0.4816570000000000    0.5183430000000000 Sb
   0.4816570000000000    0.5183430000000000    0.0183429999999990 Sb
   0.9816570000000000    0.9816570000000000    0.9816570000000000 Sb
   0.6338429999999990    0.1338430000000000    0.3661570000000000 S
   0.1338430000000000    0.3661570000000000    0.6338429999999990 S
   0.3661570000000000    0.6338429999999990    0.1338430000000000 S
   0.8661570000000000    0.8661570000000000    0.8661570000000000 S
   0.6204210000000000    0.0145220000000000    0.7429479999999991 S
   0.2570520000000000    0.1204210000000000    0.4854779999999990 S
   0.5145219999999990    0.7570519999999999    0.3795790000000000 S
   0.1204210000000000    0.4854779999999990    0.2570520000000000 S
   0.7570519999999999    0.3795790000000000    0.5145219999999990 S
   0.0145220000000000    0.7429479999999991    0.6204210000000000 S
   0.3795790000000000    0.5145219999999990    0.7570519999999999 S
   0.7429479999999991    0.6204210000000000    0.0145220000000000 S
   0.4854779999999990    0.2570520000000000    0.1204210000000000 S
   0.8795790000000000    0.9854780000000000    0.2429480000000000 S
   0.2429480000000000    0.8795790000000000    0.9854780000000000 S
   0.9854780000000000    0.2429480000000000    0.8795790000000000 S
   0.5977330000000000    0.1029620000000000    0.8418190000000000 O
   0.1581810000000000    0.0977330000000000    0.3970380000000000 O
   0.6029620000000000    0.6581810000000000    0.4022670000000000 O
   0.0977330000000000    0.3970380000000000    0.1581810000000000 O
   0.6581810000000000    0.4022670000000000    0.6029620000000000 O
   0.1029620000000000    0.8418190000000000    0.5977330000000000 O
   0.4022670000000000    0.6029620000000000    0.6581810000000000 O
   0.8418190000000000    0.5977330000000000    0.1029620000000000 O
   0.3970380000000000    0.1581810000000000    0.0977330000000000 O
   0.9022669999999990    0.8970380000000000    0.3418190000000000 O
   0.3418190000000000    0.9022669999999990    0.8970380000000000 O
   0.8970380000000000    0.3418190000000000    0.9022669999999990 O
   0.5586470000000000    0.8353659999999991    0.2806240000000000 O
   0.7193760000000000    0.0586470000000000    0.6646339999999999 O
   0.3353660000000000    0.2193760000000000    0.4413530000000000 O
   0.0586470000000000    0.6646339999999999    0.7193760000000000 O
   0.2193760000000000    0.4413530000000000    0.3353660000000000 O
   0.8353659999999991    0.2806240000000000    0.5586470000000000 O
   0.4413530000000000    0.3353660000000000    0.2193760000000000 O
   0.2806240000000000    0.5586470000000000    0.8353659999999991 O
   0.6646339999999999    0.7193760000000000    0.0586470000000000 O
   0.9413530000000000    0.1646340000000000    0.7806240000000000 O
   0.7806240000000000    0.9413530000000000    0.1646340000000000 O
   0.1646340000000000    0.7806240000000000    0.9413530000000000 O
   0.1538250000000000    0.0027100000000000    0.9496789999999991 O
   0.0503210000000000    0.6538250000000000    0.4972900000000001 O
   0.5027100000000000    0.5503209999999999    0.8461750000000000 O
   0.6538250000000000    0.4972900000000001    0.0503210000000000 O
   0.5503209999999999    0.8461750000000000    0.5027100000000000 O
   0.0027100000000000    0.9496789999999991    0.1538250000000000 O
   0.8461750000000000    0.5027100000000000    0.5503209999999999 O
   0.9496789999999991    0.1538250000000000    0.0027100000000000 O
   0.4972900000000001    0.0503210000000000    0.6538250000000000 O
   0.3461750000000000    0.9972900000000001    0.4496790000000000 O
   0.4496790000000000    0.3461750000000000    0.9972900000000001 O
   0.9972900000000001    0.4496790000000000    0.3461750000000000 O
