K12 As4 P12 Se36
1.0
  23.4543350199999985    0.0000000000000000    0.0000000000000000
   0.0000000000000000    8.2229013299999991   -0.0348386200000000
   0.0000000000000000    6.9570809699999998   10.1846343499999996
K As P Se
12 4 12 36
direct
   0.8349233800000000    0.8994746100000001    0.7187408900000000 K
   0.3349233800000000    0.1005253900000000    0.7812591100000000 K
   0.1650766200000000    0.1005253900000000    0.2812591100000000 K
   0.6650766200000000    0.8994746100000001    0.2187408900000000 K
   0.6927807400000000    0.3753485900000000    0.7452686500000000 K
   0.1927807400000000    0.6246514100000000    0.7547313500000000 K
   0.3072192600000000    0.6246514100000000    0.2547313500000000 K
   0.8072192600000000    0.3753485900000000    0.2452686500000000 K
   0.9752589500000001    0.3464587300000000    0.7749029500000000 K
   0.4752589500000000    0.6535412700000001    0.7250970500000000 K
   0.0247410500000000    0.6535412700000001    0.2250970500000000 K
   0.5247410500000000    0.3464587300000000    0.2749029500000000 K
   0.5761528100000000    0.9675140200000000    0.7293958400000000 As
   0.0761528100000000    0.0324859800000000    0.7706041600000000 As
   0.4238471900000000    0.0324859800000000    0.2706041600000000 As
   0.9238471900000000    0.9675140200000000    0.2293958400000000 As
   0.6647525300000000    0.9451269200000000    0.5265938999999999 P
   0.1647525300000000    0.0548730800000000    0.9734060999999991 P
   0.3352474700000000    0.0548730800000000    0.4734061000000000 P
   0.8352474700000000    0.9451269200000000    0.0265939000000000 P
   0.0274696800000000    0.8786751100000000    0.5794466900000000 P
   0.5274696800000001    0.1213248900000000    0.9205533100000001 P
   0.9725303200000001    0.1213248900000000    0.4205533100000000 P
   0.4725303200000000    0.8786751100000000    0.0794466900000000 P
   0.3248403400000000    0.7347658600000000    0.5451436100000000 P
   0.8248403400000001    0.2652341400000000    0.9548563900000000 P
   0.6751596600000001    0.2652341400000000    0.4548563900000000 P
   0.1751596600000000    0.7347658600000000    0.0451436100000000 P
   0.6044613100000000    0.9484017200000000    0.9246726900000001 Se
   0.1044613100000000    0.0515982800000000    0.5753273100000000 Se
   0.3955386900000000    0.0515982800000000    0.0753273100000000 Se
   0.8955386900000000    0.9484017200000000    0.4246726900000000 Se
   0.9175779600000000    0.8960725900000001    0.9724475100000001 Se
   0.4175779600000000    0.1039274100000000    0.5275524900000000 Se
   0.0824220400000000    0.1039274100000000    0.0275524900000000 Se
   0.5824220400000000    0.8960725900000001    0.4724475100000000 Se
   0.7614871999999990    0.8574014300000000    0.9716354600000000 Se
   0.2614872000000000    0.1425985700000000    0.5283645400000000 Se
   0.2385128000000000    0.1425985700000000    0.0283645400000000 Se
   0.7385128000000000    0.8574014300000000    0.4716354600000000 Se
   0.6672918800000001    0.8084392400000000    0.7448578700000000 Se
   0.1672918800000000    0.1915607600000000    0.7551421300000000 Se
   0.3327081200000000    0.1915607600000000    0.2551421300000000 Se
   0.8327081200000001    0.8084392400000000    0.2448578700000000 Se
   0.9826663700000000    0.7644752800000000    0.7611185600000000 Se
   0.4826663700000000    0.2355247200000000    0.7388814400000000 Se
   0.0173336300000000    0.2355247200000000    0.2388814400000000 Se
   0.5173336300000000    0.7644752800000000    0.2611185600000000 Se
   0.0577357400000000    0.6879506500000000    0.5258322100000000 Se
   0.5577357400000000    0.3120493500000000    0.9741677900000000 Se
   0.9422642600000000    0.3120493500000000    0.4741677900000000 Se
   0.4422642600000000    0.6879506500000000    0.0258322100000000 Se
   0.8369200100000000    0.4466172700000000    0.7467195800000000 Se
   0.3369200100000000    0.5533827300000000    0.7532804200000001 Se
   0.1630799900000000    0.5533827300000000    0.2532804200000000 Se
   0.6630799900000001    0.4466172700000000    0.2467195800000000 Se
   0.7536627400000000    0.3070174100000000    0.5248917000000000 Se
   0.2536627400000000    0.6929825900000001    0.9751082999999990 Se
   0.2463372600000000    0.6929825900000001    0.4751083000000000 Se
   0.7463372600000000    0.3070174100000000    0.0248917000000000 Se
   0.5973568700000000    0.3051096100000000    0.5514159900000000 Se
   0.0973568700000000    0.6948903900000000    0.9485840100000000 Se
   0.4026431300000000    0.6948903900000000    0.4485840100000000 Se
   0.9026431300000001    0.3051096100000000    0.0514159900000000 Se
