Li6 Bi2 S6
1.0
   4.1753140000000002   -5.4630330000000002    0.0000000000000000
   4.1753140000000002    5.4630330000000002    0.0000000000000000
  -2.9725850000000000    0.0000000000000000    6.2001379999999999
Li Bi S
6 2 6
direct
   0.0983170000000000    0.4745890000000000    0.6962419999999990 Li
   0.1962420000000000    0.9745889999999990    0.5983170000000000 Li
   0.9745889999999990    0.5983170000000000    0.1962420000000000 Li
   0.6962419999999990    0.0983170000000000    0.4745890000000000 Li
   0.4745890000000000    0.6962419999999990    0.0983170000000000 Li
   0.5983170000000000    0.1962420000000000    0.9745889999999990 Li
   0.5150930000000000    0.5150930000000000    0.5150930000000000 Bi
   0.0150929999999990    0.0150929999999990    0.0150929999999990 Bi
   0.2804390000000000    0.2931330000000000    0.9261070000000000 S
   0.4261069999999990    0.7931330000000000    0.7804390000000000 S
   0.7804390000000000    0.4261069999999990    0.7931330000000000 S
   0.2931330000000000    0.9261070000000000    0.2804390000000000 S
   0.7931330000000000    0.7804390000000000    0.4261069999999990 S
   0.9261070000000000    0.2804390000000000    0.2931330000000000 S
