Sb2 As6 Se8 F12
1.0
   9.9796030000000009    0.0000000000000000    0.0000000000000000
   0.0000000000000000    6.4526969999999997    0.0000000000000000
   0.0000000000000000    0.4433419999999990   10.7641190000000009
Sb As Se F
2 6 8 12
direct
   0.7500000000000000    0.4990590000000000    0.8325720000000000 Sb
   0.2500000000000000    0.5009410000000000    0.1674280000000000 Sb
   0.2500000000000000    0.0585570000000000    0.5175040000000000 As
   0.1240189999999990    0.9739380000000000    0.8445790000000000 As
   0.6240190000000000    0.0260620000000000    0.1554210000000000 As
   0.7500000000000000    0.9414429999999990    0.4824960000000000 As
   0.8759810000000000    0.0260620000000000    0.1554210000000000 As
   0.3759810000000000    0.9739380000000000    0.8445790000000000 As
   0.0657890000000000    0.1363059999999990    0.6525850000000000 Se
   0.4342109999999990    0.1363059999999990    0.6525850000000000 Se
   0.7500000000000000    0.3405630000000000    0.2256969999999990 Se
   0.2500000000000000    0.6594369999999991    0.7743030000000000 Se
   0.5657890000000000    0.8636940000000000    0.3474150000000000 Se
   0.7500000000000000    0.3142749999999990    0.4426870000000000 Se
   0.9342109999999991    0.8636940000000000    0.3474150000000000 Se
   0.2500000000000000    0.6857249999999990    0.5573129999999999 Se
   0.7500000000000000    0.2770030000000000    0.7171989999999990 F
   0.6152259999999991    0.3519040000000000    0.9293589999999990 F
   0.3866279999999990    0.3610939999999990    0.2645309999999990 F
   0.7500000000000000    0.7177020000000000    0.9485659999999990 F
   0.1133720000000000    0.3610939999999990    0.2645309999999990 F
   0.2500000000000000    0.2822980000000000    0.0514340000000000 F
   0.1152260000000000    0.6480960000000000    0.0706410000000000 F
   0.6133719999999990    0.6389060000000000    0.7354689999999990 F
   0.8866280000000000    0.6389060000000000    0.7354689999999990 F
   0.8847739999999999    0.3519040000000000    0.9293589999999990 F
   0.3847740000000000    0.6480960000000000    0.0706410000000000 F
   0.2500000000000000    0.7229970000000000    0.2828009999999990 F
