Rb12 Sb4 S16
1.0
   9.6198766100000004    0.0000000000000000    0.0000000000000000
  -0.0000000000000000    9.9153549900000009    0.0000000000000000
   0.0000000000000000    0.0000000000000000   11.1959731900000001
Rb Sb S
12 4 16
direct
   0.3600265300000000    0.5786013300000000    0.7500000000000000 Rb
   0.9407390700000000    0.7047528400000000    0.0427836000000000 Rb
   0.0592609300000000    0.2952471600000000    0.5427835999999990 Rb
   0.5592609300000000    0.2047528400000000    0.9572164000000000 Rb
   0.5592609300000000    0.2047528400000000    0.5427835999999990 Rb
   0.0592609300000000    0.2952471600000000    0.9572164000000000 Rb
   0.9407390700000000    0.7047528400000000    0.4572163999999990 Rb
   0.4407390700000000    0.7952471600000001    0.0427836000000000 Rb
   0.6399734700000000    0.4213986700000000    0.2500000000000000 Rb
   0.8600265300000001    0.9213986700000000    0.7500000000000000 Rb
   0.1399734700000000    0.0786013300000000    0.2500000000000000 Rb
   0.4407390700000000    0.7952471600000001    0.4572163999999990 Rb
   0.2800296700000000    0.0175413900000000    0.7500000000000000 Sb
   0.7800296700000000    0.4824586100000000    0.7500000000000000 Sb
   0.2199703300000000    0.5175413900000000    0.2500000000000000 Sb
   0.7199703300000000    0.9824586100000000    0.2500000000000000 Sb
   0.8418531800000000    0.0392563100000000    0.4234022000000000 S
   0.3418531800000000    0.4607436900000000    0.0765978000000000 S
   0.6581468200000000    0.5392563100000000    0.5765977999999990 S
   0.1581468200000000    0.9607436900000000    0.9234022000000000 S
   0.1581468200000000    0.9607436900000000    0.5765977999999990 S
   0.6581468200000000    0.5392563100000000    0.9234022000000000 S
   0.3418531800000000    0.4607436900000000    0.4234022000000000 S
   0.8418531800000000    0.0392563100000000    0.0765978000000000 S
   0.4981287100000000    0.9101420200000000    0.7500000000000000 S
   0.9981287100000000    0.5898579800000000    0.7500000000000000 S
   0.0018712900000000    0.4101420200000000    0.2500000000000000 S
   0.5018712900000000    0.0898579800000000    0.2500000000000000 S
   0.3129493400000000    0.2517538600000000    0.7500000000000000 S
   0.6870506600000000    0.7482461400000000    0.2500000000000000 S
   0.1870506600000000    0.7517538600000000    0.2500000000000000 S
   0.8129493400000000    0.2482461400000000    0.7500000000000000 S
