Rb6 Cu6 Bi16 Se30
1.0
   7.2255609999999999    6.3949169999999986    0.0000000000000000
  -7.2255609999999999    6.3949169999999986    0.0000000000000000
   0.0000000000000000    4.3373710000000001   18.6281260000000017
Rb Cu Bi Se
6 6 16 30
direct
   0.5532360000000000    0.1127700000000000    0.2474480000000000 Rb
   0.8872300000000001    0.4467640000000000    0.2525520000000000 Rb
   0.2232259999999990    0.7767740000000000    0.2500000000000000 Rb
   0.1127700000000000    0.5532360000000000    0.7474480000000000 Rb
   0.4467640000000000    0.8872300000000001    0.7525520000000000 Rb
   0.7767740000000000    0.2232259999999990    0.7500000000000000 Rb
   0.2847079999999990    0.3773180000000000    0.2601210000000000 Cu
   0.6226820000000000    0.7152919999999990    0.2398789999999990 Cu
   0.9604389999999990    0.0395610000000000    0.2500000000000000 Cu
   0.3773180000000000    0.2847079999999990    0.7601209999999990 Cu
   0.7152919999999990    0.6226820000000000    0.7398790000000000 Cu
   0.0395610000000000    0.9604389999999990    0.7500000000000000 Cu
   0.6728810000000000    0.1785110000000000    0.5002329999999990 Bi
   0.3271190000000000    0.8214889999999990    0.4997669999999990 Bi
   0.8214889999999990    0.3271190000000000    0.9997670000000000 Bi
   0.1785110000000000    0.6728810000000000    0.0002330000000000 Bi
   0.8054880000000000    0.7595850000000000    0.9007430000000000 Bi
   0.4723020000000000    0.4189150000000000    0.9026390000000000 Bi
   0.1497790000000000    0.0874520000000000    0.9054139999999991 Bi
   0.1945120000000000    0.2404150000000000    0.0992570000000000 Bi
   0.8502210000000000    0.9125479999999990    0.0945859999999990 Bi
   0.5276980000000000    0.5810850000000000    0.0973609999999990 Bi
   0.9125479999999990    0.8502210000000000    0.5945859999999999 Bi
   0.5810850000000000    0.5276980000000000    0.5973609999999990 Bi
   0.2404150000000000    0.1945120000000000    0.5992569999999990 Bi
   0.0874520000000000    0.1497790000000000    0.4054140000000000 Bi
   0.7595850000000000    0.8054880000000000    0.4007429999999990 Bi
   0.4189150000000000    0.4723020000000000    0.4026389999999990 Bi
   0.1427189999999990    0.4487640000000000    0.3628070000000000 Se
   0.4833960000000000    0.7812359999999990    0.3612329999999990 Se
   0.8123340000000000    0.1086080000000000    0.3601149999999990 Se
   0.5166040000000000    0.2187640000000000    0.6387670000000000 Se
   0.8572810000000000    0.5512359999999999    0.6371930000000000 Se
   0.1876660000000000    0.8913920000000000    0.6398849999999990 Se
   0.2187640000000000    0.5166040000000000    0.1387670000000000 Se
   0.5512359999999999    0.8572810000000000    0.1371929999999990 Se
   0.8913920000000000    0.1876660000000000    0.1398849999999990 Se
   0.4487640000000000    0.1427189999999990    0.8628070000000000 Se
   0.7812359999999990    0.4833960000000000    0.8612329999999990 Se
   0.1086080000000000    0.8123340000000000    0.8601150000000000 Se
   0.5388919999999990    0.4611079999999990    0.2500000000000000 Se
   0.8694660000000000    0.7934789999999990    0.2537490000000000 Se
   0.2065209999999990    0.1305339999999990    0.2462510000000000 Se
   0.1305339999999990    0.2065209999999990    0.7462510000000000 Se
   0.4611079999999990    0.5388919999999990    0.7500000000000000 Se
   0.7934789999999990    0.8694660000000000    0.7537490000000000 Se
   0.3851360000000000    0.1485449999999990    0.4520600000000000 Se
   0.7049170000000000    0.4785480000000000    0.4528129999999990 Se
   0.0522790000000000    0.8259440000000000    0.4539090000000000 Se
   0.2950830000000000    0.5214520000000000    0.5471870000000000 Se
   0.6148640000000000    0.8514550000000000    0.5479400000000001 Se
   0.9477209999999990    0.1740560000000000    0.5460910000000000 Se
   0.5214520000000000    0.2950830000000000    0.0471870000000000 Se
   0.8514550000000000    0.6148640000000000    0.0479400000000000 Se
   0.1740560000000000    0.9477209999999990    0.0460910000000000 Se
   0.1485449999999990    0.3851360000000000    0.9520600000000001 Se
   0.4785480000000000    0.7049170000000000    0.9528129999999990 Se
   0.8259440000000000    0.0522790000000000    0.9539090000000000 Se
