Cs12 Ge4 As4 Se20
1.0
   9.8460129999999992    0.0000000000000000    0.0000000000000000
   0.0000000000000000    7.9355060000000002    0.0000000000000000
   0.0000000000000000    3.4085399999999999   19.7443090000000012
Cs Ge As Se
12 4 4 20
direct
   0.5603939999999999    0.9193479999999991    0.2385179999999990 Cs
   0.3007990000000000    0.3723360000000000    0.5418970000000000 Cs
   0.0603939999999990    0.5806519999999999    0.2614820000000000 Cs
   0.2105850000000000    0.9690040000000000    0.4143429999999990 Cs
   0.9396059999999991    0.4193480000000000    0.7385180000000000 Cs
   0.7894150000000000    0.0309960000000000    0.5856570000000000 Cs
   0.1992010000000000    0.8723360000000000    0.0418970000000000 Cs
   0.7105850000000000    0.5309960000000000    0.0856570000000000 Cs
   0.2894150000000000    0.4690040000000000    0.9143429999999990 Cs
   0.4396060000000000    0.0806520000000000    0.7614820000000000 Cs
   0.6992010000000000    0.6276640000000000    0.4581030000000000 Cs
   0.8007989999999990    0.1276640000000000    0.9581029999999990 Cs
   0.2091620000000000    0.7957820000000000    0.6293879999999999 Ge
   0.7908379999999990    0.2042179999999990    0.3706120000000000 Ge
   0.7091620000000000    0.7042180000000000    0.8706119999999991 Ge
   0.2908380000000000    0.2957820000000000    0.1293880000000000 Ge
   0.9583579999999990    0.1285580000000000    0.2004119999999990 As
   0.0416420000000000    0.8714419999999991    0.7995880000000000 As
   0.4583580000000000    0.3714420000000000    0.2995879999999990 As
   0.5416420000000000    0.6285580000000000    0.7004119999999990 As
   0.9040220000000000    0.5906920000000000    0.9276700000000001 Se
   0.2940220000000000    0.5744389999999990    0.7224440000000000 Se
   0.5959780000000000    0.0906920000000000    0.4276700000000001 Se
   0.5401530000000000    0.8196840000000000    0.9305840000000000 Se
   0.1139319999999990    0.0262920000000000    0.6844669999999990 Se
   0.9598470000000000    0.3196839999999990    0.4305839999999990 Se
   0.7940220000000000    0.9255610000000000    0.7775559999999990 Se
   0.1161020000000000    0.0758890000000000    0.8634069999999990 Se
   0.3860679999999990    0.5262920000000000    0.1844670000000000 Se
   0.8838980000000000    0.9241109999999990    0.1365930000000000 Se
   0.0401530000000000    0.6803159999999990    0.5694159999999990 Se
   0.4598470000000000    0.1803160000000000    0.0694159999999990 Se
   0.2059780000000000    0.0744389999999990    0.2224440000000000 Se
   0.6161019999999990    0.4241109999999990    0.6365930000000000 Se
   0.4040220000000000    0.9093080000000000    0.5723300000000000 Se
   0.0959780000000000    0.4093080000000000    0.0723300000000000 Se
   0.3838979999999990    0.5758890000000000    0.3634070000000000 Se
   0.6139319999999990    0.4737079999999990    0.8155330000000000 Se
   0.8860680000000000    0.9737079999999991    0.3155330000000000 Se
   0.7059780000000000    0.4255609999999990    0.2775559999999990 Se
