Bi8 P12 Se36
1.0
   6.8691823300000001   -0.0244284100000000   -0.0471808700000000
  -0.3059370800000000   12.3460099299999992   -0.8850394600000000
   0.0300555300000000    0.0140370300000000   18.1229603300000015
Bi P Se
8 12 36
direct
   0.5263203900000000    0.4002346500000000    0.3828418500000000 Bi
   0.0668267100000000    0.4659800100000000    0.8112840300000000 Bi
   0.4331530600000000    0.9772128900000000    0.3132394000000000 Bi
   0.9816920600000000    0.9049332700000000    0.8865827500000000 Bi
   0.0183079400000000    0.0950667300000000    0.1134172500000000 Bi
   0.5668469400000000    0.0227871100000000    0.6867605999999991 Bi
   0.9331732900000000    0.5340199900000000    0.1887159700000000 Bi
   0.4736796100000000    0.5997653500000000    0.6171581500000000 Bi
   0.5655367200000000    0.9213125800000000    0.5121526000000000 P
   0.5441011200000000    0.2530444800000000    0.1816886400000000 P
   0.0590034700000000    0.4895939200000000    0.4428626900000000 P
   0.0472900000000000    0.1639596200000000    0.7723806999999990 P
   0.4301485400000000    0.4120127100000000    0.1533793800000000 P
   0.9300830600000001    0.1755855100000000    0.8869698600000000 P
   0.9527100000000001    0.8360403800000000    0.2276193000000000 P
   0.4558988800000000    0.7469555200000000    0.8183113600000000 P
   0.4344632800000000    0.0786874200000000    0.4878474000000000 P
   0.5698514600000000    0.5879872900000001    0.8466206200000000 P
   0.9409965300000001    0.5104060800000000    0.5571373100000000 P
   0.0699169400000000    0.8244144900000000    0.1130301400000000 P
   0.1610428300000000    0.3811566700000000    0.0888116100000000 Se
   0.2964415200000000    0.1879985900000000    0.2421270200000000 Se
   0.6781119000000000    0.0628940700000000    0.8876707100000000 Se
   0.3044494200000000    0.2704557400000000    0.7767209300000000 Se
   0.1780948900000000    0.7822078100000001    0.2989247200000000 Se
   0.6955505800000000    0.7295442600000001    0.2232790700000000 Se
   0.6461999300000000    0.1495471100000000    0.4139800000000000 Se
   0.3298655500000000    0.5931869900000000    0.4459065000000000 Se
   0.1368656000000000    0.6548875300000000    0.0846214600000000 Se
   0.3717542000000000    0.1653896000000000    0.5938837500000000 Se
   0.6453693600000000    0.4873337600000000    0.0824917200000000 Se
   0.1204486800000000    0.3207182700000000    0.4180846300000000 Se
   0.2075388700000000    0.7017335500000000    0.7450183800000000 Se
   0.3546306400000000    0.5126662400000001    0.9175082800000001 Se
   0.7924611300000001    0.2982664500000000    0.2549816200000000 Se
   0.8631344000000000    0.3451124700000000    0.9153785400000001 Se
   0.8840382100000000    0.0098134700000000    0.2495599500000000 Se
   0.8418593000000000    0.5635463300000000    0.3743567500000000 Se
   0.7035584800000000    0.8120014100000000    0.7578729800000000 Se
   0.6701344500000000    0.4068130100000000    0.5540935000000000 Se
   0.1159617900000000    0.9901865300000000    0.7504410500000001 Se
   0.3538000700000000    0.8504528900000000    0.5860200000000001 Se
   0.3218881000000000    0.9371059300000000    0.1123292900000000 Se
   0.3884568500000000    0.8328091000000000    0.9233566600000001 Se
   0.8795513200000000    0.6792817300000000    0.5819153700000000 Se
   0.8337841800000000    0.8942670100000000    0.0484816000000000 Se
   0.1700070300000000    0.0316228000000000    0.4235406200000000 Se
   0.3787917000000000    0.5099280500000000    0.2585569600000000 Se
   0.6212082999999990    0.4900719500000000    0.7414430400000001 Se
   0.8389571700000000    0.6188433300000000    0.9111883900000001 Se
   0.1581407000000000    0.4364536700000000    0.6256432500000000 Se
   0.8299929700000001    0.9683771999999990    0.5764593800000000 Se
   0.6282458000000000    0.8346104000000000    0.4061162500000000 Se
   0.6115431500000000    0.1671909000000000    0.0766433400000000 Se
   0.1662158200000000    0.1057329900000000    0.9515184000000000 Se
   0.8219051100000000    0.2177921900000000    0.7010752800000000 Se
