Cs12 Sb4 S12
1.0
  10.3790775300000000    0.0000000000000000    0.0000000000000000
  -0.0000000000000000   10.3790775300000000    0.0000000000000000
   0.0000000000000000   -0.0000000000000000   10.3790775300000000
Cs Sb S
12 4 12
direct
   0.4418384500000000    0.9418384500000000    0.5581615500000000 Cs
   0.9418384500000000    0.5581615500000000    0.4418384500000000 Cs
   0.5581615500000000    0.4418384500000000    0.9418384500000000 Cs
   0.0581615500000000    0.0581615500000000    0.0581615500000000 Cs
   0.9393819600000001    0.4393819600000000    0.0606180400000000 Cs
   0.4393819600000000    0.0606180400000000    0.9393819600000001 Cs
   0.0606180400000000    0.9393819600000001    0.4393819600000000 Cs
   0.5606180400000000    0.5606180400000000    0.5606180400000000 Cs
   0.6784593100000000    0.1784593100000000    0.3215406900000000 Cs
   0.1784593100000000    0.3215406900000000    0.6784593100000000 Cs
   0.3215406900000000    0.6784593100000000    0.1784593100000000 Cs
   0.8215406900000000    0.8215406900000000    0.8215406900000000 Cs
   0.2242512500000000    0.7242512500000000    0.7757487500000000 Sb
   0.7242512500000000    0.7757487500000000    0.2242512500000000 Sb
   0.7757487500000000    0.2242512500000000    0.7242512500000000 Sb
   0.2757487500000000    0.2757487500000000    0.2757487500000000 Sb
   0.1584390200000000    0.9488114000000000    0.7581537400000000 S
   0.2418462600000000    0.6584390200000000    0.5511886000000000 S
   0.4488113999999990    0.7418462600000000    0.8415609800000000 S
   0.6584390200000000    0.5511886000000000    0.2418462600000000 S
   0.7418462600000000    0.8415609800000000    0.4488113999999990 S
   0.9488114000000000    0.7581537400000000    0.1584390200000000 S
   0.8415609800000000    0.4488113999999990    0.7418462600000000 S
   0.7581537400000000    0.1584390200000000    0.9488114000000000 S
   0.5511886000000000    0.2418462600000000    0.6584390200000000 S
   0.3415609800000000    0.0511886000000000    0.2581537400000000 S
   0.2581537400000000    0.3415609800000000    0.0511886000000000 S
   0.0511886000000000    0.2581537400000000    0.3415609800000000 S
