Te7 As5 I1
1.0
   2.0161340000000001    7.4574080000000000    0.0000000000000000
  -2.0161340000000001    7.4574080000000000    0.0000000000000000
   0.0000000000000000    4.9794039999999997   13.6951800000000006
Te As I
7 5 1
direct
   0.6141610000000000    0.6141610000000000    0.3220750000000000 Te
   0.9246759999999991    0.9246759999999991    0.5530119999999999 Te
   0.2312890000000000    0.2312890000000000    0.7886780000000000 Te
   0.9596479999999999    0.9596479999999999    0.8272830000000000 Te
   0.6458500000000000    0.6458500000000000    0.5949600000000000 Te
   0.3349280000000000    0.3349280000000000    0.3734969999999990 Te
   0.0351990000000000    0.0351990000000000    0.1079089999999990 Te
   0.4969210000000000    0.4969210000000000    0.0008330000000000 As
   0.8061039999999990    0.8061039999999990    0.2596960000000000 As
   0.1226049999999990    0.1226049999999990    0.4636619999999990 As
   0.4510980000000000    0.4510980000000000    0.6781380000000000 As
   0.7690400000000001    0.7690400000000001    0.8965719999999990 As
   0.3030819999999990    0.3030819999999990    0.0759860000000000 I
