Ga6 Sb14 S16 Cl28
1.0
  12.1285256599999993    0.0000000000000000    0.0000000000000000
   0.0000000000000000    8.9233418100000002   -0.0050399100000000
   0.0000000000000000    0.9321481700000001   17.2917474099999993
Ga Sb S Cl
6 14 16 28
direct
   0.1379318500000000    0.7170740800000001    0.9645049400000000 Ga
   0.6379318500000000    0.2829259200000000    0.0354950600000000 Ga
   0.6174844300000000    0.7700637100000001    0.7354607000000000 Ga
   0.1174844300000000    0.2299362900000000    0.2645393000000000 Ga
   0.1367965700000000    0.7282245100000000    0.5285735200000000 Ga
   0.6367965700000000    0.2717754900000000    0.4714264800000000 Ga
   0.1314881800000000    0.3124468700000000    0.7549403900000000 Sb
   0.6314881800000001    0.6875531300000001    0.2450596100000000 Sb
   0.9225882200000001    0.0467548100000000    0.8505299600000000 Sb
   0.4225882200000000    0.9532451900000000    0.1494700400000000 Sb
   0.8562311100000001    0.4367560700000000    0.8487175100000001 Sb
   0.3562311100000000    0.5632439300000001    0.1512824900000000 Sb
   0.8500260800000000    0.2502494100000000    0.6533774200000000 Sb
   0.3500260800000000    0.7497505900000000    0.3466225800000000 Sb
   0.4064631500000000    0.4267119600000000    0.6567896600000001 Sb
   0.9064631500000000    0.5732880400000000    0.3432103400000000 Sb
   0.3389564900000000    0.0369052900000000    0.6775242700000000 Sb
   0.8389564900000001    0.9630947100000000    0.3224757300000000 Sb
   0.4146985800000000    0.2445891600000000    0.8616990700000000 Sb
   0.9146985800000000    0.7554108400000000    0.1383009300000000 Sb
   0.0097366300000000    0.0872716700000000    0.7157341900000000 S
   0.5097366300000000    0.9127283300000000    0.2842658100000000 S
   0.7576564100000001    0.2015123999999990    0.8240779300000001 S
   0.2576564100000000    0.7984876000000000    0.1759220700000000 S
   0.0209868000000000    0.2759384800000000    0.8924991800000001 S
   0.5209868000000000    0.7240615200000000    0.1075008200000000 S
   0.9216587400000000    0.4756358600000000    0.7126390400000000 S
   0.4216587400000000    0.5243641400000000    0.2873609600000000 S
   0.2438689200000000    0.2648470400000000    0.6198196100000000 S
   0.7438689200000000    0.7351529600000000    0.3801803900000000 S
   0.5042146800000000    0.1897653700000000    0.6946702500000000 S
   0.0042146800000000    0.8102346300000001    0.3053297500000000 S
   0.2529991100000000    0.0877664500000000    0.8100952600000000 S
   0.7529991100000000    0.9122335500000001    0.1899047400000000 S
   0.3407593800000000    0.4709776100000000    0.7911705500000000 S
   0.8407593800000001    0.5290223900000001    0.2088294500000000 S
   0.3034692000000000    0.2816969300000000    0.9734842700000000 Cl
   0.8034692000000000    0.7183030700000000    0.0265157300000000 Cl
   0.9682892100000000    0.3079062300000000    0.5466799100000000 Cl
   0.4682892100000000    0.6920937700000001    0.4533200900000000 Cl
   0.3164060800000000    0.7105609200000000    0.9647523700000000 Cl
   0.8164060800000000    0.2894390800000000    0.0352476300000000 Cl
   0.0732908900000000    0.5458968400000000    0.0483182500000000 Cl
   0.5732908900000000    0.4541031600000000    0.9516817500000000 Cl
   0.0838148100000000    0.9390489800000000    0.9973043900000000 Cl
   0.5838148100000000    0.0609510200000000    0.0026956100000000 Cl
   0.0707119100000000    0.6768330800000000    0.8490250800000000 Cl
   0.5707119100000000    0.3231669200000000    0.1509749200000000 Cl
   0.6293079700000000    0.5229590500000000    0.7535685000000000 Cl
   0.1293079700000000    0.4770409500000000    0.2464315000000000 Cl
   0.5433861999999990    0.8142178900000000    0.6230117500000000 Cl
   0.0433862000000000    0.1857821100000000    0.3769882500000000 Cl
   0.7887292200000000    0.8493998600000000    0.7378907500000000 Cl
   0.2887292200000000    0.1506001400000000    0.2621092500000000 Cl
   0.5133656900000000    0.8628530900000000    0.8229771300000001 Cl
   0.0133656900000000    0.1371469100000000    0.1770228700000000 Cl
   0.1927544500000000    0.6522482500000000    0.6461145700000001 Cl
   0.6927544500000000    0.3477517500000000    0.3538854300000000 Cl
   0.9596840600000001    0.7555839999999990    0.5258363400000000 Cl
   0.4596840600000000    0.2444160000000000    0.4741636600000000 Cl
   0.1849061500000000    0.5573508700000001    0.4473551999999990 Cl
   0.6849061500000000    0.4426491300000000    0.5526447999999990 Cl
   0.2252878200000000    0.9365901500000000    0.4996819100000000 Cl
   0.7252878200000000    0.0634098500000000    0.5003180900000000 Cl
