Tl8 Hg6 Sb4 As16 S40
1.0
   6.8058589999999999  -12.2598500000000001    0.0000000000000000
   6.8058589999999999   12.2598500000000001    0.0000000000000000
   0.0000000000000000    0.0000000000000000   11.5847259999999999
Tl Hg Sb As S
8 6 4 16 40
direct
   0.0176090000000000    0.4800859999999990    0.4422569999999990 Tl
   0.8530000000000000    0.6352400000000000    0.7028900000000000 Tl
   0.5176090000000000    0.9800859999999991    0.0577429999999990 Tl
   0.4800859999999990    0.0176090000000000    0.5577430000000000 Tl
   0.3530000000000000    0.1352400000000000    0.7971100000000001 Tl
   0.6352400000000000    0.8530000000000000    0.2971100000000000 Tl
   0.9800859999999991    0.5176090000000000    0.9422570000000000 Tl
   0.1352400000000000    0.3530000000000000    0.2028900000000000 Tl
   0.0541209999999990    0.9391539999999990    0.4257160000000000 Hg
   0.5541210000000000    0.4391540000000000    0.0742840000000000 Hg
   0.9391539999999990    0.0541209999999990    0.5742840000000000 Hg
   0.4391540000000000    0.5541210000000000    0.9257160000000000 Hg
   0.9966119999999991    0.9966119999999991    0.0000000000000000 Hg
   0.4966120000000000    0.4966120000000000    0.5000000000000000 Hg
   0.3473569999999990    0.6710010000000000    0.7077610000000000 Sb
   0.1710010000000000    0.8473569999999990    0.2077610000000000 Sb
   0.8473569999999990    0.1710010000000000    0.7922389999999990 Sb
   0.6710010000000000    0.3473569999999990    0.2922389999999990 Sb
   0.8128630000000000    0.7022349999999991    0.1035490000000000 As
   0.2966720000000000    0.6913969999999990    0.0940739999999990 As
   0.2908469999999990    0.7080540000000000    0.3870210000000000 As
   0.6878560000000000    0.7881349999999990    0.6044410000000000 As
   0.2022350000000000    0.3128630000000000    0.6035490000000000 As
   0.7966719999999990    0.1913969999999990    0.4059260000000000 As
   0.1913969999999990    0.7966719999999990    0.5940740000000000 As
   0.6913969999999990    0.2966720000000000    0.9059260000000000 As
   0.7908470000000000    0.2080540000000000    0.1129790000000000 As
   0.2881350000000000    0.1878560000000000    0.1044409999999990 As
   0.7080540000000000    0.2908469999999990    0.6129789999999991 As
   0.1878560000000000    0.2881350000000000    0.8955590000000000 As
   0.7881349999999990    0.6878560000000000    0.3955590000000000 As
   0.2080540000000000    0.7908470000000000    0.8870209999999999 As
   0.3128630000000000    0.2022350000000000    0.3964510000000000 As
   0.7022349999999991    0.8128630000000000    0.8964510000000000 As
   0.3768559999999990    0.3688079999999990    0.1738740000000000 S
   0.3688079999999990    0.3768559999999990    0.8261259999999990 S
   0.1366010000000000    0.8586060000000000    0.7540080000000000 S
   0.2759050000000000    0.9369790000000000    0.0184259999999990 S
   0.9824750000000000    0.8024190000000000    0.0178630000000000 S
   0.6200460000000000    0.8552449999999990    0.7452920000000000 S
   0.3511150000000000    0.8821530000000000    0.3098720000000000 S
   0.5427480000000000    0.2279800000000000    0.0200790000000000 S
   0.6366010000000000    0.3586060000000000    0.7459920000000000 S
   0.8821530000000000    0.3511150000000000    0.6901280000000000 S
   0.6160169999999990    0.6258400000000001    0.3232109999999990 S
   0.3024190000000000    0.4824750000000000    0.5178630000000000 S
   0.8688079999999990    0.8768560000000000    0.6738740000000000 S
   0.8024190000000000    0.9824750000000000    0.9821369999999990 S
   0.2279800000000000    0.5427480000000000    0.9799209999999990 S
   0.1160170000000000    0.1258400000000000    0.1767890000000000 S
   0.0522730000000000    0.2344719999999990    0.4793600000000001 S
   0.6511060000000000    0.1237579999999990    0.8301379999999990 S
   0.7759050000000000    0.4369790000000000    0.4815740000000000 S
   0.1237579999999990    0.6511060000000000    0.1698619999999990 S
   0.2344719999999990    0.0522730000000000    0.5206400000000000 S
   0.3586060000000000    0.6366010000000000    0.2540080000000000 S
   0.1200460000000000    0.3552450000000000    0.7547079999999990 S
   0.0427480000000000    0.7279800000000001    0.4799210000000000 S
   0.9369790000000000    0.2759050000000000    0.9815739999999999 S
   0.5522730000000000    0.7344720000000000    0.0206400000000000 S
   0.4824750000000000    0.3024190000000000    0.4821370000000000 S
   0.7344720000000000    0.5522730000000000    0.9793600000000001 S
   0.8768560000000000    0.8688079999999990    0.3261259999999990 S
   0.6258400000000001    0.6160169999999990    0.6767890000000000 S
   0.4369790000000000    0.7759050000000000    0.5184259999999991 S
   0.8552449999999990    0.6200460000000000    0.2547080000000000 S
   0.8586060000000000    0.1366010000000000    0.2459920000000000 S
   0.6237579999999990    0.1511060000000000    0.3301380000000000 S
   0.7279800000000001    0.0427480000000000    0.5200790000000000 S
   0.3821529999999990    0.8511150000000000    0.8098719999999990 S
   0.3552450000000000    0.1200460000000000    0.2452919999999990 S
   0.1258400000000000    0.1160170000000000    0.8232109999999990 S
   0.8511150000000000    0.3821529999999990    0.1901280000000000 S
   0.1511060000000000    0.6237579999999990    0.6698620000000000 S
