Ag2 Bi6 Pb2 S12
1.0
   2.0601029999999998   -6.8636900000000001    0.0000000000000000
   2.0601029999999998    6.8636900000000001    0.0000000000000000
   0.0000000000000000    0.0000000000000000   20.0008830000000017
Ag Bi Pb S
2 6 2 12
direct
   0.0608390000000000    0.9391609999999990    0.1401600000000000 Ag
   0.9391609999999990    0.0608390000000000    0.6401600000000001 Ag
   0.3698059999999990    0.6301939999999990    0.4566570000000000 Bi
   0.6441410000000000    0.3558590000000000    0.5547660000000000 Bi
   0.3558590000000000    0.6441410000000000    0.0547659999999990 Bi
   0.6301939999999990    0.3698059999999990    0.9566570000000000 Bi
   0.9001819999999990    0.0998179999999990    0.8588239999999990 Bi
   0.0998179999999990    0.9001819999999990    0.3588240000000000 Bi
   0.8234239999999990    0.1765759999999990    0.2432119999999990 Pb
   0.1765759999999990    0.8234239999999990    0.7432120000000000 Pb
   0.9840949999999991    0.0159050000000000    0.5068980000000000 S
   0.0159050000000000    0.9840949999999991    0.0068980000000000 S
   0.7382750000000000    0.2617250000000000    0.4050970000000000 S
   0.2608600000000000    0.7391400000000000    0.5896950000000000 S
   0.7391400000000000    0.2608600000000000    0.0896950000000000 S
   0.2617250000000000    0.7382750000000000    0.9050969999999990 S
   0.1751670000000000    0.8248329999999990    0.2402369999999990 S
   0.8248329999999990    0.1751670000000000    0.7402369999999990 S
   0.4641690000000000    0.5358309999999999    0.3367300000000000 S
   0.5561079999999990    0.4438919999999990    0.6677219999999990 S
   0.4438919999999990    0.5561079999999990    0.1677219999999990 S
   0.5358309999999999    0.4641690000000000    0.8367300000000001 S
