Sb8 Te12 Se12 F48
1.0
   8.9409799999999997    0.0000000000000000    0.0000000000000000
   0.0000000000000000   12.6316720000000000    0.0000000000000000
   0.0000000000000000    0.0000000000000000   16.2152969999999996
Sb Te Se F
8 12 12 48
direct
   0.0195610000000000    0.0474340000000000    0.0546710000000000 Sb
   0.4804390000000000    0.9525659999999990    0.5546710000000000 Sb
   0.9804389999999999    0.5474340000000000    0.4453290000000000 Sb
   0.5195609999999991    0.4525659999999990    0.9453290000000000 Sb
   0.5425949999999991    0.2166840000000000    0.2320460000000000 Sb
   0.9574050000000000    0.7833160000000000    0.7320460000000000 Sb
   0.4574050000000000    0.7166840000000000    0.2679539999999990 Sb
   0.0425950000000000    0.2833160000000000    0.7679539999999990 Sb
   0.1471080000000000    0.6651039999999990    0.0541120000000000 Te
   0.3528920000000000    0.3348959999999990    0.5541119999999990 Te
   0.8528920000000000    0.1651040000000000    0.4458880000000000 Te
   0.6471080000000000    0.8348960000000000    0.9458880000000000 Te
   0.5366500000000001    0.6115360000000000    0.5459370000000000 Te
   0.9633500000000000    0.3884640000000000    0.0459370000000000 Te
   0.4633500000000000    0.1115360000000000    0.9540630000000000 Te
   0.0366500000000000    0.8884639999999990    0.4540630000000000 Te
   0.1339950000000000    0.0056830000000000    0.3125080000000000 Te
   0.3660049999999990    0.9943170000000000    0.8125080000000000 Te
   0.8660049999999990    0.5056830000000000    0.1874920000000000 Te
   0.6339950000000000    0.4943169999999991    0.6874920000000000 Te
   0.0945930000000000    0.1969680000000000    0.3691919999999990 Se
   0.4054069999999990    0.8030320000000000    0.8691920000000000 Se
   0.9054070000000000    0.6969679999999990    0.1308080000000000 Se
   0.5945929999999990    0.3030319999999990    0.6308079999999990 Se
   0.1310180000000000    0.4346560000000000    0.1674650000000000 Se
   0.3689820000000000    0.5653440000000000    0.6674650000000000 Se
   0.8689819999999990    0.9346559999999990    0.3325349999999990 Se
   0.6310180000000000    0.0653440000000000    0.8325349999999990 Se
   0.4847970000000000    0.4470320000000000    0.4506509999999990 Se
   0.0152030000000000    0.5529680000000000    0.9506509999999990 Se
   0.5152030000000000    0.9470320000000000    0.0493490000000000 Se
   0.9847969999999990    0.0529679999999990    0.5493490000000000 Se
   0.4925739999999990    0.1873959999999990    0.1185819999999990 F
   0.0074259999999990    0.8126040000000000    0.6185820000000000 F
   0.5074259999999990    0.6873960000000000    0.3814180000000000 F
   0.9925740000000000    0.3126040000000000    0.8814179999999990 F
   0.6518870000000000    0.0873729999999990    0.2375140000000000 F
   0.8481130000000000    0.9126270000000000    0.7375140000000000 F
   0.3481130000000000    0.5873729999999990    0.2624860000000000 F
   0.1518870000000000    0.4126269999999990    0.7624860000000000 F
   0.3245070000000000    0.0263610000000000    0.6134910000000000 F
   0.1754929999999990    0.9736389999999990    0.1134910000000000 F
   0.6754930000000000    0.5263610000000000    0.8865090000000000 F
   0.8245070000000000    0.4736390000000000    0.3865090000000000 F
   0.9716300000000001    0.1161400000000000    0.1570580000000000 F
   0.5283700000000000    0.8838600000000001    0.6570579999999990 F
   0.0283700000000000    0.6161400000000000    0.3429419999999990 F
   0.4716300000000000    0.3838600000000000    0.8429420000000000 F
   0.1145190000000000    0.4313460000000000    0.4222660000000000 F
   0.3854809999999990    0.5686540000000000    0.9222659999999990 F
   0.8854810000000000    0.9313460000000000    0.0777340000000000 F
   0.6145189999999990    0.0686539999999990    0.5777340000000000 F
   0.4275930000000000    0.3441519999999990    0.2274610000000000 F
   0.0724070000000000    0.6558480000000000    0.7274609999999990 F
   0.5724070000000000    0.8441520000000000    0.2725390000000000 F
   0.9275930000000000    0.1558480000000000    0.7725390000000000 F
   0.5909559999999990    0.2449090000000000    0.3458410000000000 F
   0.9090440000000000    0.7550910000000000    0.8458410000000000 F
   0.4090439999999990    0.7449089999999990    0.1541590000000000 F
   0.0909560000000000    0.2550910000000000    0.6541589999999990 F
   0.5794500000000000    0.5191300000000001    0.0465210000000000 F
   0.9205500000000001    0.4808700000000000    0.5465209999999990 F
   0.4205500000000000    0.0191300000000000    0.4534789999999990 F
   0.0794500000000000    0.9808700000000001    0.9534790000000000 F
   0.7190660000000000    0.2935080000000000    0.1978960000000000 F
   0.7809340000000000    0.7064920000000000    0.6978960000000000 F
   0.2809339999999990    0.7935080000000000    0.3021040000000000 F
   0.2190659999999990    0.2064919999999990    0.8021039999999990 F
   0.3624290000000000    0.1415970000000000    0.2662720000000000 F
   0.1375710000000000    0.8584029999999990    0.7662720000000000 F
   0.6375710000000000    0.6415970000000000    0.2337280000000000 F
   0.8624290000000000    0.3584029999999990    0.7337279999999990 F
   0.3609090000000000    0.3776160000000000    0.9996769999999990 F
   0.1390910000000000    0.6223839999999990    0.4996770000000000 F
   0.6390910000000000    0.8776160000000000    0.5003230000000000 F
   0.8609089999999990    0.1223839999999990    0.0003230000000000 F
   0.1565629999999990    0.1623610000000000    0.0308780000000000 F
   0.3434370000000000    0.8376389999999990    0.5308780000000000 F
   0.8434370000000000    0.6623610000000000    0.4691220000000000 F
   0.6565630000000000    0.3376389999999990    0.9691219999999990 F
