Ag3 Bi7 S12
1.0
   2.0373380000000001    6.7349899999999998    0.0000000000000000
  -2.0373380000000001    6.7349899999999998    0.0000000000000000
   0.0000000000000000    4.2817330000000000   19.9980830000000012
Ag Bi S
3 7 12
direct
   0.0000000000000000    0.0000000000000000    0.5000000000000000 Ag
   0.2990609999999990    0.2990609999999990    0.9122659999999990 Ag
   0.7009390000000000    0.7009390000000000    0.0877339999999990 Ag
   0.6136429999999991    0.6136429999999991    0.8273779999999999 Bi
   0.3863570000000000    0.3863570000000000    0.1726220000000000 Bi
   0.0000000000000000    0.0000000000000000    0.0000000000000000 Bi
   0.2375090000000000    0.2375090000000000    0.5888050000000000 Bi
   0.7624909999999990    0.7624909999999990    0.4111950000000000 Bi
   0.9181710000000000    0.9181710000000000    0.7319680000000000 Bi
   0.0818290000000000    0.0818290000000000    0.2680320000000000 Bi
   0.4371049999999990    0.4371049999999990    0.2969859999999990 S
   0.5628949999999990    0.5628949999999990    0.7030139999999990 S
   0.7326670000000000    0.7326670000000000    0.2103350000000000 S
   0.2673330000000000    0.2673330000000000    0.7896650000000000 S
   0.1264340000000000    0.1264340000000000    0.3886200000000000 S
   0.8735660000000000    0.8735660000000000    0.6113800000000000 S
   0.3483950000000000    0.3483950000000000    0.0344550000000000 S
   0.6516050000000000    0.6516050000000000    0.9655450000000000 S
   0.0320220000000000    0.0320220000000000    0.1315859999999990 S
   0.9679780000000000    0.9679780000000000    0.8684139999999990 S
   0.3624370000000000    0.3624370000000000    0.4709589999999990 S
   0.6375630000000000    0.6375630000000000    0.5290410000000000 S
