Ga2 Hg6 As2 S2 Cl8
1.0
   3.7590629999999998   -6.5108879999999996    0.0000000000000000
   3.7590629999999998    6.5108879999999996    0.0000000000000000
   0.0000000000000000    0.0000000000000000   12.4282789999999999
Ga Hg As S Cl
2 6 2 2 8
direct
   0.0000000000000000    0.0000000000000000    0.2609370000000000 Ga
   0.0000000000000000    0.0000000000000000    0.7609370000000000 Ga
   0.5016720000000000    0.0033439999999990    0.4670070000000000 Hg
   0.5016720000000000    0.4983280000000000    0.4670070000000000 Hg
   0.9966560000000000    0.4983280000000000    0.4670070000000000 Hg
   0.4983280000000000    0.9966560000000000    0.9670069999999999 Hg
   0.4983280000000000    0.5016720000000000    0.9670069999999999 Hg
   0.0033439999999990    0.5016720000000000    0.9670069999999999 Hg
   0.6666670000000000    0.3333330000000000    0.5742910000000000 As
   0.3333330000000000    0.6666670000000000    0.0742910000000000 As
   0.3333330000000000    0.6666670000000000    0.3756500000000000 S
   0.6666670000000000    0.3333330000000000    0.8756500000000000 S
   0.3226960000000000    0.1613480000000000    0.2085330000000000 Cl
   0.8386520000000000    0.6773040000000000    0.2085330000000000 Cl
   0.8386520000000000    0.1613480000000000    0.2085330000000000 Cl
   0.6773040000000000    0.8386520000000000    0.7085330000000000 Cl
   0.1613480000000000    0.3226960000000000    0.7085330000000000 Cl
   0.1613480000000000    0.8386520000000000    0.7085330000000000 Cl
   0.0000000000000000    0.0000000000000000    0.4403640000000000 Cl
   0.0000000000000000    0.0000000000000000    0.9403640000000000 Cl
