K12 As4 S16
1.0
   9.2556080000000005    0.0000000000000000    0.0000000000000000
   0.0000000000000000    9.5218480000000003    0.0000000000000000
   0.0000000000000000    0.0000000000000000   10.8151150000000005
K As S
12 4 16
direct
   0.9418759999999990    0.7035400000000001    0.0083730000000000 K
   0.0581239999999990    0.2964600000000000    0.5083730000000000 K
   0.5581240000000000    0.2035400000000000    0.5083730000000000 K
   0.4418760000000000    0.7964600000000001    0.0083730000000000 K
   0.9446120000000000    0.7008059999999990    0.4176630000000000 K
   0.0553880000000000    0.2991939999999990    0.9176630000000000 K
   0.5553880000000000    0.2008059999999990    0.9176630000000000 K
   0.4446120000000000    0.7991940000000000    0.4176630000000000 K
   0.6389760000000000    0.4192340000000000    0.2199809999999990 K
   0.3610239999999990    0.5807660000000000    0.7199810000000000 K
   0.8610240000000000    0.9192340000000000    0.7199810000000000 K
   0.1389760000000000    0.0807659999999990    0.2199809999999990 K
   0.7208570000000000    0.9812719999999990    0.2113710000000000 As
   0.2791430000000000    0.0187279999999990    0.7113710000000000 As
   0.7791429999999990    0.4812720000000000    0.7113710000000000 As
   0.2208570000000000    0.5187280000000000    0.2113710000000000 As
   0.6902450000000000    0.7531030000000000    0.2143139999999990 S
   0.3097550000000000    0.2468969999999990    0.7143140000000000 S
   0.8097550000000000    0.2531029999999990    0.7143140000000000 S
   0.1902450000000000    0.7468969999999990    0.2143139999999990 S
   0.8388139999999999    0.0356719999999990    0.0423790000000000 S
   0.1611860000000000    0.9643280000000000    0.5423789999999999 S
   0.6611859999999991    0.5356719999999990    0.5423789999999999 S
   0.3388140000000000    0.4643279999999990    0.0423790000000000 S
   0.5093380000000000    0.0875910000000000    0.2124800000000000 S
   0.4906620000000000    0.9124089999999990    0.7124800000000001 S
   0.9906619999999990    0.5875910000000000    0.7124800000000001 S
   0.0093379999999990    0.4124089999999990    0.2124800000000000 S
   0.8399310000000000    0.0422979999999990    0.3788390000000000 S
   0.1600690000000000    0.9577019999999991    0.8788389999999990 S
   0.6600690000000000    0.5422979999999999    0.8788389999999990 S
   0.3399310000000000    0.4577020000000000    0.3788390000000000 S
