Cs12 Sb4 S16
1.0
  10.0216598200000000    0.0000000000000000    0.0000000000000000
   0.0000000000000000   10.1247518599999999    0.0000000000000000
   0.0000000000000000    0.0000000000000000   11.7636824499999992
Cs Sb S
12 4 16
direct
   0.8505357000000000    0.9136536200000001    0.7500000000000000 Cs
   0.3505357000000000    0.5863463800000001    0.7500000000000000 Cs
   0.1494643000000000    0.0863463800000000    0.2500000000000000 Cs
   0.6494643000000000    0.4136536200000000    0.2500000000000000 Cs
   0.0466481100000000    0.2952856400000000    0.5417724300000000 Cs
   0.5466481100000000    0.2047143600000000    0.9582275700000000 Cs
   0.9533518900000000    0.7047143600000000    0.0417724300000000 Cs
   0.4533518900000000    0.7952856400000000    0.4582275700000000 Cs
   0.9533518900000000    0.7047143600000000    0.4582275700000000 Cs
   0.4533518900000000    0.7952856400000000    0.0417724300000000 Cs
   0.0466481100000000    0.2952856400000000    0.9582275700000000 Cs
   0.5466481100000000    0.2047143600000000    0.5417724300000000 Cs
   0.7748281600000000    0.4810575600000000    0.7500000000000000 Sb
   0.2748281600000000    0.0189424400000000    0.7500000000000000 Sb
   0.2251718400000000    0.5189424400000000    0.2500000000000000 Sb
   0.7251718400000000    0.9810575600000000    0.2500000000000000 Sb
   0.7969006600000000    0.2503310900000000    0.7500000000000000 S
   0.2969006600000000    0.2496689100000000    0.7500000000000000 S
   0.2030993400000000    0.7496689100000000    0.2500000000000000 S
   0.7030993400000000    0.7503310900000000    0.2500000000000000 S
   0.9889798200000001    0.5763276200000000    0.7500000000000000 S
   0.4889798200000000    0.9236723800000001    0.7500000000000000 S
   0.0110201800000000    0.4236723800000000    0.2500000000000000 S
   0.5110201800000000    0.0763276200000000    0.2500000000000000 S
   0.8381334100000000    0.0439791500000000    0.4153517000000000 S
   0.3381334100000000    0.4560208500000000    0.0846483000000000 S
   0.1618665900000000    0.9560208500000000    0.9153517000000000 S
   0.6618665900000000    0.5439791500000000    0.5846483000000000 S
   0.1618665900000000    0.9560208500000000    0.5846483000000000 S
   0.6618665900000000    0.5439791500000000    0.9153517000000000 S
   0.8381334100000000    0.0439791500000000    0.0846483000000000 S
   0.3381334100000000    0.4560208500000000    0.4153517000000000 S
