Hg6 As16 S16 Br12
1.0
  11.9560659999999999    0.0000000000000000    0.0000000000000000
   0.0000000000000000   10.2009679999999996    0.0000000000000000
   0.0000000000000000    4.5218280000000002   13.9411600000000000
Hg As S Br
6 16 16 12
direct
   0.7787020000000000    0.2413650000000000    0.6936080000000000 Hg
   0.2787020000000000    0.7586349999999999    0.8063920000000000 Hg
   0.7212980000000000    0.2413650000000000    0.1936080000000000 Hg
   0.2212980000000000    0.7586349999999999    0.3063920000000000 Hg
   0.5000000000000000    0.0000000000000000    0.5000000000000000 Hg
   0.0000000000000000    0.0000000000000000    0.0000000000000000 Hg
   0.9148020000000000    0.6217760000000000    0.5815969999999990 As
   0.1743910000000000    0.1318639999999990    0.4757700000000000 As
   0.3654920000000000    0.3871600000000000    0.4932100000000000 As
   0.3256090000000000    0.1318639999999990    0.9757700000000000 As
   0.8541580000000000    0.6279840000000000    0.1825870000000000 As
   0.6743910000000000    0.8681359999999990    0.0242300000000000 As
   0.1458420000000000    0.3720159999999990    0.8174129999999999 As
   0.3541580000000000    0.3720159999999990    0.3174130000000000 As
   0.8256089999999990    0.8681359999999990    0.5242300000000001 As
   0.0851980000000000    0.3782240000000000    0.4184029999999990 As
   0.6345080000000000    0.6128400000000001    0.5067900000000001 As
   0.1345080000000000    0.3871600000000000    0.9932100000000000 As
   0.8654919999999990    0.6128400000000001    0.0067900000000000 As
   0.4148020000000000    0.3782240000000000    0.9184030000000000 As
   0.5851980000000000    0.6217760000000000    0.0815970000000000 As
   0.6458419999999990    0.6279840000000000    0.6825869999999991 As
   0.1800790000000000    0.4619740000000000    0.2784220000000000 S
   0.6800790000000000    0.5380260000000000    0.2215780000000000 S
   0.3199210000000000    0.4619740000000000    0.7784219999999999 S
   0.3034370000000000    0.4843389999999990    0.9996490000000000 S
   0.8199210000000000    0.5380260000000000    0.7215779999999991 S
   0.3062330000000000    0.1722660000000000    0.5747810000000000 S
   0.2927389999999990    0.1522369999999990    0.3516189999999990 S
   0.6937670000000000    0.8277340000000000    0.4252189999999990 S
   0.8062330000000000    0.8277340000000000    0.9252190000000000 S
   0.7927390000000000    0.8477629999999990    0.1483809999999990 S
   0.2072610000000000    0.1522369999999990    0.8516190000000000 S
   0.1965630000000000    0.4843389999999990    0.4996489999999991 S
   0.6965629999999990    0.5156609999999990    0.0003509999999990 S
   0.1937670000000000    0.1722660000000000    0.0747810000000000 S
   0.8034370000000000    0.5156609999999990    0.5003510000000000 S
   0.7072609999999990    0.8477629999999990    0.6483810000000000 S
   0.5346670000000000    0.1589290000000000    0.1641210000000000 Br
   0.3833410000000000    0.7872070000000000    0.5562239999999991 Br
   0.0346669999999990    0.8410710000000000    0.3358790000000000 Br
   0.1166590000000000    0.7872070000000000    0.0562239999999990 Br
   0.4212639999999990    0.7374609999999990    0.2691469999999990 Br
   0.9653330000000000    0.1589290000000000    0.6641210000000000 Br
   0.8833409999999990    0.2127929999999990    0.9437759999999999 Br
   0.6166590000000000    0.2127929999999990    0.4437760000000000 Br
   0.0787360000000000    0.7374609999999990    0.7691469999999990 Br
   0.9212640000000000    0.2625389999999990    0.2308530000000000 Br
   0.4653330000000000    0.8410710000000000    0.8358789999999990 Br
   0.5787360000000000    0.2625389999999990    0.7308530000000000 Br
