As6 H18 C6 S18 F36
1.0
   8.2128929999999993    0.0000000000000000    0.0000000000000000
  -2.8744639999999988   11.4700550000000003    0.0000000000000000
  -2.4387189999999999   -5.4415480000000001   13.9775320000000001
As H C S F
6 18 6 18 36
direct
   0.0000000000000000    0.5000000000000000    0.0000000000000000 As
   0.3520570000000000    0.8097169999999990    0.6903859999999991 As
   0.0000000000000000    0.0000000000000000    0.0000000000000000 As
   0.3408400000000000    0.2923969999999990    0.6475040000000000 As
   0.6591600000000001    0.7076030000000000    0.3524960000000000 As
   0.6479429999999990    0.1902829999999990    0.3096140000000000 As
   0.9978790000000000    0.5307680000000000    0.2601750000000000 H
   0.1411089999999990    0.8326749999999991    0.1694580000000000 H
   0.3331940000000000    0.7880440000000000    0.9038729999999990 H
   0.3524090000000000    0.8507610000000000    0.4329079999999990 H
   0.0662260000000000    0.0688730000000000    0.4005269999999990 H
   0.2592910000000000    0.5044480000000000    0.4992319999999991 H
   0.2548660000000000    0.2813670000000000    0.2400240000000000 H
   0.3758980000000000    0.1427080000000000    0.8345330000000000 H
   0.6156239999999999    0.5631200000000001    0.9392990000000000 H
   0.3843760000000000    0.4368800000000000    0.0607010000000000 H
   0.6241019999999990    0.8572919999999991    0.1654670000000000 H
   0.7451340000000000    0.7186330000000000    0.7599760000000000 H
   0.7407090000000000    0.4955520000000000    0.5007680000000000 H
   0.9337740000000000    0.9311269999999990    0.5994729999999990 H
   0.6475909999999990    0.1492389999999990    0.5670919999999990 H
   0.6668060000000000    0.2119559999999990    0.0961269999999990 H
   0.8588910000000000    0.1673250000000000    0.8305420000000000 H
   0.0021210000000000    0.4692320000000000    0.7398250000000000 H
   0.1852579999999990    0.9170170000000000    0.3334109999999990 C
   0.1636260000000000    0.4363269999999990    0.3330950000000000 C
   0.4777220000000000    0.2649950000000000    0.9966029999999991 C
   0.5222780000000000    0.7350050000000000    0.0033970000000000 C
   0.8363740000000000    0.5636730000000000    0.6669050000000000 C
   0.8147420000000000    0.0829830000000000    0.6665890000000000 C
   0.0618820000000000    0.5483709999999991    0.3531970000000000 S
   0.2592970000000000    0.9321229999999990    0.4490579999999990 S
   0.4081240000000000    0.8365770000000000    0.9996740000000000 S
   0.2302150000000000    0.8117059999999990    0.2430949999999990 S
   0.1462090000000000    0.3447920000000000    0.2188119999999990 S
   0.0614749999999990    0.0052309999999990    0.3085420000000000 S
   0.3440149999999990    0.2447079999999990    0.8909020000000000 S
   0.2740329999999990    0.4101800000000000    0.4257769999999990 S
   0.4983920000000000    0.6109650000000000    0.9026660000000000 S
   0.5016079999999991    0.3890349999999990    0.0973339999999990 S
   0.7259669999999990    0.5898200000000000    0.5742229999999990 S
   0.6559849999999990    0.7552920000000000    0.1090980000000000 S
   0.9385249999999991    0.9947689999999991    0.6914580000000000 S
   0.8537910000000000    0.6552080000000000    0.7811880000000000 S
   0.7697849999999991    0.1882940000000000    0.7569049999999991 S
   0.5918760000000000    0.1634229999999990    0.0003260000000000 S
   0.7407030000000000    0.0678769999999990    0.5509419999999990 S
   0.9381180000000000    0.4516290000000000    0.6468030000000000 S
   0.1341149999999990    0.9459240000000000    0.9270640000000000 F
   0.0638960000000000    0.5099969999999990    0.8952450000000000 F
   0.0429680000000000    0.3555700000000001    0.9785149999999990 F
   0.1443519999999990    0.8295200000000000    0.6663180000000000 F
   0.0771060000000000    0.9338300000000000    0.0823160000000000 F
   0.2819760000000000    0.7224419999999990    0.7622220000000000 F
   0.4251870000000000    0.9493910000000000    0.7929450000000000 F
   0.2756240000000000    0.6691210000000000    0.5879610000000000 F
   0.1871660000000000    0.3122070000000000    0.7166310000000000 F
   0.4234080000000000    0.8957240000000000    0.6192989999999990 F
   0.1662730000000000    0.2044190000000000    0.5431980000000000 F
   0.2182740000000000    0.5804340000000000    0.0689080000000000 F
   0.3410849999999990    0.4320319999999990    0.6271829999999990 F
   0.5585230000000000    0.7872880000000000    0.7138530000000000 F
   0.3408700000000000    0.1528660000000000    0.6683829999999999 F
   0.1713910000000000    0.1421210000000000    0.0639219999999990 F
   0.5072400000000000    0.7288910000000000    0.4226740000000000 F
   0.5142380000000000    0.3805730000000000    0.7513440000000000 F
   0.4857619999999990    0.6194269999999999    0.2486560000000000 F
   0.4927600000000000    0.2711090000000000    0.5773260000000000 F
   0.8286089999999990    0.8578789999999999    0.9360780000000000 F
   0.6591300000000001    0.8471339999999991    0.3316170000000000 F
   0.4414769999999990    0.2127119999999990    0.2861470000000000 F
   0.6589149999999990    0.5679680000000000    0.3728170000000000 F
   0.7817259999999990    0.4195660000000000    0.9310919999999990 F
   0.8337270000000000    0.7955810000000000    0.4568020000000000 F
   0.5765920000000000    0.1042760000000000    0.3807009999999990 F
   0.8128339999999999    0.6877930000000000    0.2833690000000000 F
   0.7243760000000000    0.3308790000000000    0.4120390000000000 F
   0.5748130000000000    0.0506089999999990    0.2070550000000000 F
   0.7180240000000000    0.2775579999999990    0.2377780000000000 F
   0.9228940000000000    0.0661700000000000    0.9176839999999991 F
   0.8556480000000000    0.1704800000000000    0.3336820000000000 F
   0.9570320000000000    0.6444300000000001    0.0214850000000000 F
   0.9361039999999990    0.4900029999999990    0.1047550000000000 F
   0.8658850000000000    0.0540760000000000    0.0729360000000000 F
