Sr12 Sb16 S36
1.0
   4.0626329999999999    0.0000000000000000    0.0000000000000000
   0.0000000000000000   16.7234240000000014    0.0000000000000000
   0.0000000000000000    0.0000000000000000   24.4813429999999990
Sr Sb S
12 16 36
direct
   0.7563380000000000    0.3780890000000000    0.0551370000000000 Sr
   0.2563380000000000    0.6219110000000000    0.9448630000000000 Sr
   0.2563380000000000    0.1219109999999990    0.5551370000000000 Sr
   0.7563380000000000    0.8780890000000000    0.4448629999999990 Sr
   0.7575050000000000    0.1748529999999990    0.1760280000000000 Sr
   0.2575050000000000    0.8251470000000000    0.8239719999999990 Sr
   0.2575050000000000    0.3251469999999990    0.6760280000000000 Sr
   0.7575050000000000    0.6748529999999990    0.3239720000000000 Sr
   0.7601960000000000    0.4434410000000000    0.2335420000000000 Sr
   0.2601960000000000    0.5565590000000000    0.7664580000000000 Sr
   0.2601960000000000    0.0565590000000000    0.7335419999999990 Sr
   0.7601960000000000    0.9434410000000000    0.2664580000000000 Sr
   0.7272320000000000    0.8324000000000000    0.9887410000000000 Sb
   0.2272320000000000    0.1676000000000000    0.0112590000000000 Sb
   0.2272320000000000    0.6676000000000001    0.4887410000000000 Sb
   0.7272320000000000    0.3324000000000000    0.5112590000000000 Sb
   0.2368779999999990    0.0909239999999990    0.3945209999999990 Sb
   0.7368779999999990    0.9090760000000000    0.6054790000000000 Sb
   0.7368779999999990    0.4090760000000000    0.8945210000000000 Sb
   0.2368779999999990    0.5909240000000000    0.1054789999999990 Sb
   0.2056839999999990    0.2570000000000000    0.3225100000000000 Sb
   0.7056840000000000    0.7430000000000000    0.6774900000000000 Sb
   0.7056840000000000    0.2430000000000000    0.8225100000000001 Sb
   0.2056839999999990    0.7570000000000000    0.1774900000000000 Sb
   0.2094800000000000    0.4725200000000001    0.3891739999999990 Sb
   0.7094800000000001    0.5274800000000001    0.6108260000000000 Sb
   0.7094800000000001    0.0274800000000000    0.8891739999999990 Sb
   0.2094800000000000    0.9725200000000001    0.1108260000000000 Sb
   0.7866820000000000    0.6409750000000000    0.1923820000000000 S
   0.2866820000000000    0.3590250000000000    0.8076179999999999 S
   0.2866820000000000    0.8590249999999990    0.6923819999999991 S
   0.7866820000000000    0.1409750000000000    0.3076180000000000 S
   0.7666870000000000    0.5611440000000000    0.0374890000000000 S
   0.2666870000000000    0.4388559999999990    0.9625110000000000 S
   0.2666870000000000    0.9388559999999990    0.5374890000000000 S
   0.7666870000000000    0.0611440000000000    0.4625110000000000 S
   0.2559079999999990    0.4516230000000000    0.1383069999999990 S
   0.7559079999999990    0.5483770000000000    0.8616929999999990 S
   0.7559079999999990    0.0483769999999990    0.6383070000000000 S
   0.2559079999999990    0.9516230000000000    0.3616930000000000 S
   0.2548350000000000    0.2519369999999990    0.0934470000000000 S
   0.7548349999999990    0.7480629999999990    0.9065529999999991 S
   0.7548349999999990    0.2480629999999990    0.5934469999999999 S
   0.7725430000000000    0.5639590000000000    0.4278559999999990 S
   0.2548350000000000    0.7519370000000000    0.4065530000000000 S
   0.2781520000000000    0.1327180000000000    0.8470090000000000 S
   0.2781520000000000    0.6327180000000000    0.6529910000000000 S
   0.7781520000000000    0.3672820000000000    0.3470090000000000 S
   0.2571090000000000    0.5417820000000000    0.3002190000000000 S
   0.7571089999999990    0.4582179999999990    0.6997810000000000 S
   0.7571089999999990    0.9582179999999991    0.8002190000000000 S
   0.2571090000000000    0.0417820000000000    0.1997810000000000 S
   0.2475919999999990    0.7971969999999990    0.2738230000000000 S
   0.7475919999999990    0.2028029999999990    0.7261770000000000 S
   0.7475919999999990    0.7028030000000000    0.7738229999999990 S
   0.2475919999999990    0.2971970000000000    0.2261770000000000 S
   0.2552800000000000    0.2562109999999990    0.4682039999999990 S
   0.7552800000000001    0.7437889999999990    0.5317959999999990 S
   0.7552800000000001    0.2437889999999990    0.9682040000000000 S
   0.2552800000000000    0.7562110000000000    0.0317960000000000 S
   0.7725430000000000    0.0639590000000000    0.0721440000000000 S
   0.2725430000000000    0.9360410000000000    0.9278559999999991 S
   0.2725430000000000    0.4360409999999990    0.5721440000000000 S
   0.7781520000000000    0.8672820000000000    0.1529910000000000 S
