Rb6 Bi4 S4 Cl10 O20
1.0
  21.7163070000000005    0.0000000000000000    0.0000000000000000
   0.0000000000000000    6.3397490000000003    0.0000000000000000
   0.0000000000000000    0.8808560000000000    7.4990519999999998
Rb Bi S Cl O
6 4 4 10 20
direct
   0.6260049999999990    0.0058260000000000    0.6078960000000000 Rb
   0.1260050000000000    0.9941740000000000    0.3921040000000000 Rb
   0.8169959999999991    0.8753339999999999    0.3304229999999990 Rb
   0.3169960000000000    0.1246660000000000    0.6695770000000000 Rb
   0.9659200000000001    0.7455309999999991    0.8225330000000000 Rb
   0.4659200000000001    0.2544690000000000    0.1774669999999990 Rb
   0.8005639999999991    0.3153260000000000    0.7921150000000000 Bi
   0.3005640000000000    0.6846740000000000    0.2078850000000000 Bi
   0.6438320000000000    0.5736319999999990    0.1388480000000000 Bi
   0.1438320000000000    0.4263679999999990    0.8611519999999990 Bi
   0.7875770000000000    0.8107360000000000    0.8133720000000000 S
   0.2875769999999990    0.1892640000000000    0.1866280000000000 S
   0.6572970000000000    0.0769880000000000    0.1259080000000000 S
   0.1572970000000000    0.9230119999999991    0.8740920000000000 S
   0.8909960000000000    0.2437339999999990    0.5874940000000000 Cl
   0.3909959999999990    0.7562660000000000    0.4125060000000000 Cl
   0.8748900000000001    0.3670310000000000    0.0594860000000000 Cl
   0.3748900000000001    0.6329690000000000    0.9405140000000000 Cl
   0.7228340000000000    0.4435579999999990    0.4743190000000000 Cl
   0.2228339999999990    0.5564420000000000    0.5256810000000000 Cl
   0.5532650000000000    0.6334230000000000    0.3471349999999990 Cl
   0.0532650000000000    0.3665770000000000    0.6528649999999990 Cl
   0.5701140000000000    0.5276100000000000    0.8741679999999999 Cl
   0.0701140000000000    0.4723900000000000    0.1258320000000000 Cl
   0.8233119999999990    0.9361419999999990    0.9346620000000000 O
   0.3233120000000000    0.0638580000000000    0.0653380000000000 O
   0.7541650000000000    0.9651240000000000    0.6841950000000000 O
   0.2541650000000000    0.0348760000000000    0.3158050000000000 O
   0.8319590000000000    0.6829489999999990    0.7128740000000000 O
   0.3319590000000000    0.3170509999999990    0.2871260000000000 O
   0.7453770000000000    0.6557680000000000    0.9142400000000001 O
   0.2453769999999990    0.3442320000000000    0.0857600000000000 O
   0.6998789999999990    0.2324530000000000    0.0265030000000000 O
   0.1998790000000000    0.7675470000000000    0.9734969999999999 O
   0.6115670000000000    0.2052020000000000    0.2208210000000000 O
   0.1115670000000000    0.7947980000000000    0.7791790000000000 O
   0.6239410000000000    0.9474440000000000    0.0024579999999990 O
   0.1239410000000000    0.0525560000000000    0.9975419999999990 O
   0.6899020000000000    0.9253190000000000    0.2591810000000000 O
   0.1899020000000000    0.0746810000000000    0.7408190000000000 O
   0.9721740000000000    0.8776670000000000    0.3146470000000000 O
   0.4721740000000000    0.1223330000000000    0.6853530000000000 O
   0.9748310000000000    0.9973360000000000    0.1730290000000000 O
   0.4748310000000000    0.0026639999999990    0.8269710000000000 O
