Rb6 Bi18 Se30
1.0
   2.1863619999999999   18.5157460000000000    0.0000000000000000
  -2.1863619999999999   18.5157460000000000    0.0000000000000000
   0.0000000000000000   12.4428560000000008   21.7708060000000003
Rb Bi Se
6 18 30
direct
   0.8265619999999990    0.8265619999999990    0.6925070000000000 Rb
   0.1734379999999990    0.1734379999999990    0.3074929999999990 Rb
   0.5226350000000000    0.5226350000000000    0.2884910000000000 Rb
   0.4773650000000000    0.4773650000000000    0.7115089999999999 Rb
   0.3385840000000000    0.3385840000000000    0.1518489999999990 Rb
   0.6614160000000000    0.6614160000000000    0.8481510000000000 Rb
   0.8431240000000000    0.8431240000000000    0.8401489999999990 Bi
   0.1568760000000000    0.1568760000000000    0.1598510000000000 Bi
   0.6114010000000000    0.6114010000000000    0.0617729999999990 Bi
   0.3885989999999990    0.3885989999999990    0.9382269999999990 Bi
   0.6944830000000000    0.6944830000000000    0.5081780000000000 Bi
   0.3055170000000000    0.3055170000000000    0.4918220000000000 Bi
   0.4564040000000000    0.4564040000000000    0.1604620000000000 Bi
   0.5435960000000000    0.5435960000000000    0.8395380000000000 Bi
   0.7771629999999990    0.7771629999999990    0.0543950000000000 Bi
   0.2228369999999990    0.2228369999999990    0.9456049999999990 Bi
   0.8880950000000000    0.8880950000000000    0.3240200000000000 Bi
   0.1119049999999990    0.1119049999999990    0.6759800000000000 Bi
   0.9113049999999990    0.9113049999999990    0.4850080000000000 Bi
   0.0886950000000000    0.0886950000000000    0.5149920000000000 Bi
   0.5000000000000000    0.5000000000000000    0.5000000000000000 Bi
   0.7250570000000000    0.7250570000000000    0.6580670000000000 Bi
   0.2749430000000000    0.2749430000000000    0.3419330000000000 Bi
   0.0000000000000000    0.0000000000000000    0.0000000000000000 Bi
   0.8134380000000000    0.8134380000000000    0.5611990000000000 Se
   0.1865619999999990    0.1865619999999990    0.4388010000000000 Se
   0.6032860000000000    0.6032860000000000    0.5933069999999990 Se
   0.3967139999999990    0.3967139999999990    0.4066929999999990 Se
   0.6299779999999990    0.6299779999999990    0.2424039999999990 Se
   0.3700219999999990    0.3700219999999990    0.7575959999999990 Se
   0.9701800000000000    0.9701800000000000    0.2347000000000000 Se
   0.0298200000000000    0.0298200000000000    0.7653000000000001 Se
   0.8581839999999999    0.8581839999999999    0.0325590000000000 Se
   0.1418160000000000    0.1418160000000000    0.9674410000000000 Se
   0.7874570000000000    0.7874570000000000    0.4229590000000000 Se
   0.2125429999999990    0.2125429999999990    0.5770410000000000 Se
   0.5921470000000000    0.5921470000000000    0.4387359999999990 Se
   0.4078529999999990    0.4078529999999990    0.5612640000000000 Se
   0.7641939999999990    0.7641939999999990    0.2801820000000000 Se
   0.2358060000000000    0.2358060000000000    0.7198180000000000 Se
   0.9242429999999990    0.9242429999999990    0.1211820000000000 Se
   0.0757569999999990    0.0757569999999990    0.8788180000000000 Se
   0.5323820000000000    0.5323820000000000    0.0449440000000000 Se
   0.4676180000000000    0.4676180000000000    0.9550559999999991 Se
   0.9993369999999990    0.9993369999999990    0.4199759999999990 Se
   0.0006630000000000    0.0006630000000000    0.5800240000000000 Se
   0.2482130000000000    0.2482130000000000    0.1381620000000000 Se
   0.7517870000000000    0.7517870000000000    0.8618380000000000 Se
   0.9171009999999991    0.9171009999999991    0.8481890000000000 Se
   0.0828990000000000    0.0828990000000000    0.1518110000000000 Se
   0.6914739999999990    0.6914739999999990    0.0519730000000000 Se
   0.3085259999999990    0.3085259999999990    0.9480270000000000 Se
   0.3674190000000000    0.3674190000000000    0.2695289999999990 Se
   0.6325809999999999    0.6325809999999999    0.7304710000000000 Se
