Ag6 Sb2 S6
1.0
   4.5282119999999999   -6.1077880000000002    0.0000000000000000
   4.5282119999999999    6.1077880000000002    0.0000000000000000
  -3.7101549999999999    0.0000000000000000    6.6366050000000003
Ag Sb S
6 2 6
direct
   0.9532060000000000    0.4600840000000000    0.8805210000000000 Ag
   0.3805210000000000    0.9600839999999990    0.4532060000000000 Ag
   0.8805210000000000    0.9532060000000000    0.4600840000000000 Ag
   0.4532060000000000    0.3805210000000000    0.9600839999999990 Ag
   0.4600840000000000    0.8805210000000000    0.9532060000000000 Ag
   0.9600839999999990    0.4532060000000000    0.3805210000000000 Ag
   0.4017000000000000    0.4017000000000000    0.4017000000000000 Sb
   0.9017000000000001    0.9017000000000001    0.9017000000000001 Sb
   0.6825470000000000    0.5745089999999990    0.3227330000000000 S
   0.8227329999999990    0.0745089999999990    0.1825470000000000 S
   0.3227330000000000    0.6825470000000000    0.5745089999999990 S
   0.1825470000000000    0.8227329999999990    0.0745089999999990 S
   0.5745089999999990    0.3227330000000000    0.6825470000000000 S
   0.0745089999999990    0.1825470000000000    0.8227329999999990 S
