Li12 Bi4 S16
1.0
   7.1416740000000001    0.0000000000000000    0.0000000000000000
   0.0000000000000000    9.7737839999999991    0.0000000000000000
   0.0000000000000000    0.0000000000000000   10.1077860000000008
Li Bi S
12 4 16
direct
   0.2277330000000000    0.2158280000000000    0.5877300000000001 Li
   0.2277330000000000    0.2158280000000000    0.9122700000000000 Li
   0.1914800000000000    0.3917060000000000    0.2500000000000000 Li
   0.3085200000000000    0.8917060000000000    0.7500000000000000 Li
   0.2722670000000000    0.7158280000000000    0.4122700000000000 Li
   0.2722670000000000    0.7158280000000000    0.0877300000000000 Li
   0.7277330000000000    0.2841720000000000    0.5877300000000001 Li
   0.7277330000000000    0.2841720000000000    0.9122700000000000 Li
   0.6914800000000001    0.1082940000000000    0.2500000000000000 Li
   0.8085200000000000    0.6082940000000000    0.7500000000000000 Li
   0.7722669999999990    0.7841720000000000    0.0877300000000000 Li
   0.7722669999999990    0.7841720000000000    0.4122700000000000 Li
   0.2483449999999990    0.0182939999999990    0.2500000000000000 Bi
   0.2516549999999990    0.5182939999999990    0.7500000000000000 Bi
   0.7483449999999990    0.4817059999999990    0.2500000000000000 Bi
   0.7516550000000000    0.9817060000000000    0.7500000000000000 Bi
   0.0058020000000000    0.8051720000000000    0.7500000000000000 S
   0.1425900000000000    0.4835290000000000    0.4783909999999990 S
   0.1425900000000000    0.4835290000000000    0.0216090000000000 S
   0.0376660000000000    0.8011729999999990    0.2500000000000000 S
   0.4623339999999990    0.3011729999999990    0.7500000000000000 S
   0.3574100000000000    0.9835290000000000    0.9783910000000000 S
   0.3574100000000000    0.9835290000000000    0.5216090000000000 S
   0.4941979999999990    0.3051720000000000    0.2500000000000000 S
   0.5058020000000000    0.6948280000000000    0.7500000000000000 S
   0.6425900000000000    0.0164710000000000    0.4783909999999990 S
   0.6425900000000000    0.0164710000000000    0.0216090000000000 S
   0.5376660000000000    0.6988270000000000    0.2500000000000000 S
   0.9623339999999990    0.1988270000000000    0.7500000000000000 S
   0.8574100000000001    0.5164710000000000    0.9783910000000000 S
   0.8574100000000001    0.5164710000000000    0.5216090000000000 S
   0.9941979999999990    0.1948280000000000    0.2500000000000000 S
