Tl4 Sb12 S20
1.0
  15.9538890000000002    0.0000000000000000    0.0000000000000000
   0.0000000000000000    7.4797019999999996    0.0000000000000000
   0.0000000000000000    3.7936959999999988    8.3781440000000007
Tl Sb S
4 12 20
direct
   0.7360169999999990    0.0267250000000000    0.4624790000000000 Tl
   0.2360169999999990    0.9732750000000000    0.0375210000000000 Tl
   0.2639829999999990    0.9732750000000000    0.5375210000000000 Tl
   0.7639830000000000    0.0267250000000000    0.9624790000000000 Tl
   0.8691869999999990    0.4967589999999991    0.0634450000000000 Sb
   0.3691870000000000    0.5032409999999991    0.4365549999999990 Sb
   0.1308129999999990    0.5032409999999991    0.9365549999999990 Sb
   0.6308130000000000    0.4967589999999991    0.5634450000000000 Sb
   0.5033520000000000    0.9931300000000001    0.2132140000000000 Sb
   0.0033520000000000    0.0068700000000000    0.2867860000000000 Sb
   0.4966480000000000    0.0068700000000000    0.7867860000000000 Sb
   0.9966480000000000    0.9931300000000001    0.7132140000000000 Sb
   0.5963250000000000    0.5334620000000000    0.1122779999999990 Sb
   0.0963250000000000    0.4665379999999990    0.3877219999999990 Sb
   0.4036750000000000    0.4665379999999990    0.8877220000000000 Sb
   0.9036750000000000    0.5334620000000000    0.6122780000000000 Sb
   0.7283419999999990    0.3280849999999990    0.1113110000000000 S
   0.2283420000000000    0.6719149999999990    0.3886890000000000 S
   0.2716580000000000    0.6719149999999990    0.8886890000000000 S
   0.7716580000000000    0.3280849999999990    0.6113109999999990 S
   0.8733839999999990    0.7889510000000000    0.3408430000000000 S
   0.3733840000000000    0.2110490000000000    0.1591570000000000 S
   0.1266160000000000    0.2110490000000000    0.6591570000000000 S
   0.6266160000000000    0.7889510000000000    0.8408430000000000 S
   0.5561710000000000    0.2504220000000000    0.4999090000000000 S
   0.0561710000000000    0.7495780000000000    0.0000910000000000 S
   0.4438290000000000    0.7495780000000000    0.5000910000000000 S
   0.9438289999999990    0.2504220000000000    0.9999089999999990 S
   0.9406140000000000    0.2251780000000000    0.3968040000000000 S
   0.4406140000000000    0.7748220000000000    0.1031960000000000 S
   0.0593859999999990    0.7748220000000000    0.6031960000000000 S
   0.5593859999999991    0.2251780000000000    0.8968039999999990 S
   0.8411409999999990    0.7095290000000000    0.7631740000000000 S
   0.3411409999999990    0.2904710000000000    0.7368260000000000 S
   0.1588590000000000    0.2904710000000000    0.2368259999999990 S
   0.6588590000000000    0.7095290000000000    0.2631739999999990 S
