Tl12 As4 Se16
1.0
   9.3148292599999998    0.0000000000000000    0.0000000000000000
  -0.0000000000000000    9.5529516900000004    0.0000000000000000
   0.0000000000000000    0.0000000000000000   11.2278755300000004
Tl As Se
12 4 16
direct
   0.8952418200000000    0.3878771300000000    0.7500000000000000 Tl
   0.3952418200000000    0.1121228700000000    0.7500000000000000 Tl
   0.1047581800000000    0.6121228700000000    0.2500000000000000 Tl
   0.6047581800000000    0.8878771300000000    0.2500000000000000 Tl
   0.5675107900000000    0.6920244300000000    0.5524697000000000 Tl
   0.0675107900000000    0.8079755700000000    0.9475302999999990 Tl
   0.4324892100000000    0.3079755700000000    0.0524697000000000 Tl
   0.9324892100000001    0.1920244300000000    0.4475303000000000 Tl
   0.4324892100000000    0.3079755700000000    0.4475303000000000 Tl
   0.9324892100000001    0.1920244300000000    0.0524697000000000 Tl
   0.5675107900000000    0.6920244300000000    0.9475302999999990 Tl
   0.0675107900000000    0.8079755700000000    0.5524697000000000 Tl
   0.7807524800000000    0.9729251600000001    0.7500000000000000 As
   0.2807524800000000    0.5270748400000000    0.7500000000000000 As
   0.2192475200000000    0.0270748400000000    0.2500000000000000 As
   0.7192475200000000    0.4729251600000000    0.2500000000000000 As
   0.8120149700000000    0.7290468999999991    0.7500000000000000 Se
   0.3120149700000000    0.7709530999999999    0.7500000000000000 Se
   0.1879850300000000    0.2709531000000000    0.2500000000000000 Se
   0.6879850300000000    0.2290469000000000    0.2500000000000000 Se
   0.5091184800000000    0.4269665400000000    0.7500000000000000 Se
   0.0091184800000000    0.0730334600000000    0.7500000000000000 Se
   0.4908815200000000    0.5730334600000000    0.2500000000000000 Se
   0.9908815200000001    0.9269665400000000    0.2500000000000000 Se
   0.6512051900000000    0.0331723900000000    0.5801315700000000 Se
   0.1512051900000000    0.4668276100000000    0.9198684300000001 Se
   0.3487948100000000    0.9668276100000001    0.0801315700000000 Se
   0.8487948100000000    0.5331723900000001    0.4198684300000000 Se
   0.3487948100000000    0.9668276100000001    0.4198684300000000 Se
   0.8487948100000000    0.5331723900000001    0.0801315700000000 Se
   0.6512051900000000    0.0331723900000000    0.9198684300000001 Se
   0.1512051900000000    0.4668276100000000    0.5801315700000000 Se
