Bi4 S6 O24
1.0
   4.6379190000000001    7.1655509999999998    0.0000000000000000
  -4.6379190000000001    7.1655509999999998    0.0000000000000000
   0.0000000000000000    4.1048060000000000    8.3857379999999999
Bi S O
4 6 24
direct
   0.3706959999999990    0.8627920000000000    0.4792550000000000 Bi
   0.8627920000000000    0.3706959999999990    0.9792550000000000 Bi
   0.1372080000000000    0.6293040000000000    0.0207450000000000 Bi
   0.6293040000000000    0.1372080000000000    0.5207450000000000 Bi
   0.7547300000000000    0.5455040000000000    0.3242569999999990 S
   0.5455040000000000    0.7547300000000000    0.8242570000000000 S
   0.0591709999999990    0.9408289999999990    0.2500000000000000 S
   0.9408289999999990    0.0591709999999990    0.7500000000000000 S
   0.4544959999999990    0.2452700000000000    0.1757429999999990 S
   0.2452700000000000    0.4544959999999990    0.6757430000000000 S
   0.8892059999999991    0.9517960000000000    0.3747890000000000 O
   0.9517960000000000    0.8892059999999991    0.8747889999999990 O
   0.8630780000000000    0.5107450000000000    0.4256060000000000 O
   0.6202289999999990    0.7279270000000000    0.3052610000000000 O
   0.8698340000000000    0.5374690000000000    0.1516760000000000 O
   0.5107450000000000    0.8630780000000000    0.9256059999999990 O
   0.2074639999999990    0.8983470000000000    0.3197530000000000 O
   0.6579929999999991    0.4137969999999990    0.3723650000000000 O
   0.7279270000000000    0.6202289999999990    0.8052610000000000 O
   0.5374690000000000    0.8698340000000000    0.6516759999999990 O
   0.8983470000000000    0.2074639999999990    0.8197530000000000 O
   0.5862029999999990    0.3420070000000000    0.1276350000000000 O
   0.4137969999999990    0.6579929999999991    0.8723649999999999 O
   0.1016530000000000    0.7925360000000000    0.1802470000000000 O
   0.4625309999999990    0.1301660000000000    0.3483239999999990 O
   0.2720730000000000    0.3797709999999990    0.1947390000000000 O
   0.3420070000000000    0.5862029999999990    0.6276349999999991 O
   0.7925360000000000    0.1016530000000000    0.6802469999999990 O
   0.4892550000000000    0.1369220000000000    0.0743940000000000 O
   0.1301660000000000    0.4625309999999990    0.8483240000000000 O
   0.3797709999999990    0.2720730000000000    0.6947390000000000 O
   0.1369220000000000    0.4892550000000000    0.5743940000000000 O
   0.0482040000000000    0.1107939999999990    0.1252110000000000 O
   0.1107939999999990    0.0482040000000000    0.6252110000000000 O
