Mg1 Cu3 As1 S4
1.0
   5.4216220000000002    0.0000000000000000    0.0000000000000000
   0.0000000000000000    5.8691279999999999    0.0000000000000000
   0.0000000000000000    0.0000000000000000    5.4216220000000002
Mg Cu As S
1 3 1 4
direct
   0.0000000000000000    0.5000000000000000    0.0000000000000000 Mg
   0.0000000000000000    0.5000000000000000    0.5000000000000000 Cu
   0.5000000000000000    0.5000000000000000    0.0000000000000000 Cu
   0.5000000000000000    0.0000000000000000    0.5000000000000000 Cu
   0.0000000000000000    0.0000000000000000    0.0000000000000000 As
   0.2655850000000000    0.7365419999999990    0.7344149999999990 S
   0.7344149999999990    0.7365419999999990    0.2655850000000000 S
   0.7344149999999990    0.2634579999999990    0.7344149999999990 S
   0.2655850000000000    0.2634579999999990    0.2655850000000000 S
