K3 Ag9 Sb4 S12
1.0
  -5.5113070000000004    5.5113070000000004    5.8944019999999995
   5.5113070000000004   -5.5113070000000004    5.8944019999999995
   5.5113070000000004    5.5113070000000004   -5.8944019999999995
K Ag Sb S
3 9 4 12
direct
   0.0000000000000000    0.0000000000000000    0.0000000000000000 K
   0.6665479999999990    0.6665479999999990    0.0000000000000000 K
   0.3334519999999990    0.3334519999999990    0.0000000000000000 K
   0.3386280000000000    0.4868289999999990    0.4982789999999990 Ag
   0.9885500000000000    0.8403490000000000    0.5017210000000000 Ag
   0.5088360000000000    0.0074529999999990    0.1742149999999990 Ag
   0.8332379999999990    0.3346210000000000    0.8257850000000000 Ag
   0.6653789999999991    0.4911640000000000    0.4986170000000000 Ag
   0.9925470000000000    0.1667620000000000    0.5013830000000000 Ag
   0.5131709999999990    0.0114500000000000    0.8517990000000000 Ag
   0.1596510000000000    0.6613720000000000    0.1482010000000000 Ag
   0.2500000000000000    0.7500000000000000    0.5000000000000000 Ag
   0.6236880000000000    0.8842869999999990    0.4909329999999991 Sb
   0.3933540000000000    0.1327539999999990    0.5090669999999990 Sb
   0.8672460000000000    0.3763120000000000    0.2606000000000000 Sb
   0.1157130000000000    0.6066460000000000    0.7394000000000001 Sb
   0.5730109999999990    0.7917980000000000    0.6818259999999990 S
   0.1099720000000000    0.8911850000000000    0.3181740000000000 S
   0.7917609999999990    0.0893110000000000    0.2016230000000000 S
   0.8876879999999990    0.5901379999999991    0.7983770000000000 S
   0.4098620000000000    0.2082389999999990    0.2975500000000000 S
   0.9106890000000000    0.1123120000000000    0.7024500000000000 S
   0.2082020000000000    0.8900279999999990    0.7812129999999990 S
   0.1088150000000000    0.4269890000000000    0.2187869999999990 S
   0.3397770000000000    0.6877529999999999    0.0201690000000000 S
   0.6675850000000000    0.3196080000000000    0.9798310000000000 S
   0.6803920000000000    0.6602230000000000    0.3479760000000000 S
   0.3122470000000000    0.3324149999999990    0.6520239999999990 S
