Tl8 As40 Pb8 S72
1.0
   8.3096384099999998   -0.0000000000000000    0.0000000000000000
   0.0000000000000000   11.1334865700000005    0.0000000000000000
   0.0000000000000000    0.0000000000000000   36.0888879600000010
Tl As Pb S
8 40 8 72
direct
   0.3649538200000000    0.1585418700000000    0.1227408900000000 Tl
   0.6350461800000000    0.8414581300000000    0.8772591100000000 Tl
   0.1350461800000000    0.8414581300000000    0.6227408900000000 Tl
   0.6350461800000000    0.6585418700000000    0.3772591100000000 Tl
   0.8649538200000000    0.1585418700000000    0.3772591100000000 Tl
   0.3649538200000000    0.3414581300000000    0.6227408900000000 Tl
   0.8649538200000000    0.3414581300000000    0.8772591100000000 Tl
   0.1350461800000000    0.6585418700000000    0.1227408900000000 Tl
   0.0431882400000000    0.1182484900000000    0.0291589200000000 As
   0.9568117600000000    0.8817515100000001    0.9708410800000000 As
   0.4568117600000000    0.8817515100000001    0.5291589200000000 As
   0.9568117600000000    0.6182484900000000    0.4708410800000000 As
   0.5431882400000000    0.1182484900000000    0.4708410800000000 As
   0.0431882400000000    0.3817515100000000    0.5291589200000000 As
   0.5431882400000000    0.3817515100000000    0.9708410800000000 As
   0.4568117600000000    0.6182484900000000    0.0291589200000000 As
   0.3743343200000000    0.4017565500000000    0.3150550400000000 As
   0.6256656800000000    0.5982434500000000    0.6849449600000000 As
   0.1256656800000000    0.5982434500000000    0.8150550400000001 As
   0.6256656800000000    0.9017565500000000    0.1849449600000000 As
   0.8743343200000000    0.4017565500000000    0.1849449600000000 As
   0.3743343200000000    0.0982434500000000    0.8150550400000001 As
   0.8743343200000000    0.0982434500000000    0.6849449600000000 As
   0.1256656800000000    0.9017565500000000    0.3150550400000000 As
   0.2837119800000000    0.3640240500000000    0.4516599600000000 As
   0.7162880200000000    0.6359759500000001    0.5483400400000000 As
   0.2162880200000000    0.6359759500000001    0.9516599600000000 As
   0.7162880200000000    0.8640240500000000    0.0483400400000000 As
   0.7837119800000000    0.3640240500000000    0.0483400400000000 As
   0.2837119800000000    0.1359759500000000    0.9516599600000000 As
   0.7837119800000000    0.1359759500000000    0.5483400400000000 As
   0.2162880200000000    0.8640240500000000    0.4516599600000000 As
   0.3644476300000000    0.0596218500000000    0.3846530900000000 As
   0.6355523700000000    0.9403781500000000    0.6153469100000000 As
   0.1355523700000000    0.9403781500000000    0.8846530900000000 As
   0.6355523700000000    0.5596218500000000    0.1153469100000000 As
   0.8644476300000000    0.0596218500000000    0.1153469100000000 As
   0.3644476300000000    0.4403781500000000    0.8846530900000000 As
   0.8644476300000000    0.4403781500000000    0.6153469100000000 As
   0.1355523700000000    0.5596218500000000    0.3846530900000000 As
   0.2939657900000000    0.3915931900000000    0.1948862800000000 As
   0.7060342100000000    0.6084068100000000    0.8051137200000000 As
   0.2060342100000000    0.6084068100000000    0.6948862800000000 As
   0.7060342100000000    0.8915931900000000    0.3051137200000000 As
   0.7939657900000000    0.3915931900000000    0.3051137200000000 As
   0.2939657900000000    0.1084068100000000    0.6948862800000000 As
   0.7939657900000000    0.1084068100000000    0.8051137200000000 As
   0.2060342100000000    0.8915931900000000    0.1948862800000000 As
   0.3946141500000000    0.1358019700000000    0.2530424100000000 Pb
   0.6053858500000000    0.8641980300000001    0.7469575900000001 Pb
   0.1053858500000000    0.8641980300000001    0.7530424100000001 Pb
   0.6053858500000000    0.6358019700000000    0.2469575900000000 Pb
   0.8946141500000000    0.1358019700000000    0.2469575900000000 Pb
   0.3946141500000000    0.3641980300000000    0.7530424100000001 Pb
   0.8946141500000000    0.3641980300000000    0.7469575900000001 Pb
   0.1053858500000000    0.6358019700000000    0.2530424100000000 Pb
   0.1775112400000000    0.3715677200000000    0.3627820200000000 S
   0.8224887600000000    0.6284322800000001    0.6372179800000000 S
   0.3224887600000000    0.6284322800000001    0.8627820200000000 S
   0.8224887600000000    0.8715677200000000    0.1372179800000000 S
   0.6775112400000000    0.3715677200000000    0.1372179800000000 S
   0.1775112400000000    0.1284322800000000    0.8627820200000000 S
   0.6775112400000000    0.1284322800000000    0.6372179800000000 S
   0.3224887600000000    0.8715677200000000    0.3627820200000000 S
   0.1393812100000000    0.0878225000000000    0.1912279300000000 S
   0.8606187900000000    0.9121775000000000    0.8087720700000001 S
   0.3606187900000000    0.9121775000000000    0.6912279300000000 S
   0.8606187900000000    0.5878225000000000    0.3087720700000000 S
   0.6393812100000000    0.0878225000000000    0.3087720700000000 S
   0.1393812100000000    0.4121775000000000    0.6912279300000000 S
   0.6393812100000000    0.4121775000000000    0.8087720700000001 S
   0.3606187900000000    0.5878225000000000    0.1912279300000000 S
   0.0445734500000000    0.3051162100000000    0.0565727100000000 S
   0.9554265500000000    0.6948837900000000    0.9434272900000000 S
   0.4554265500000000    0.6948837900000000    0.5565727100000000 S
   0.9554265500000000    0.8051162100000000    0.4434272900000000 S
   0.5445734500000000    0.3051162100000000    0.4434272900000000 S
   0.0445734500000000    0.1948837900000000    0.5565727100000000 S
   0.5445734500000000    0.1948837900000000    0.9434272900000000 S
   0.4554265500000000    0.8051162100000000    0.0565727100000000 S
   0.1032234900000000    0.3853905200000000    0.1472061600000000 S
   0.8967765100000000    0.6146094800000000    0.8527938400000000 S
   0.3967765100000000    0.6146094800000000    0.6472061600000000 S
   0.8967765100000000    0.8853905200000001    0.3527938400000000 S
   0.6032234900000000    0.3853905200000000    0.3527938400000000 S
   0.1032234900000000    0.1146094800000000    0.6472061600000000 S
   0.6032234900000000    0.1146094800000000    0.8527938400000000 S
   0.3967765100000000    0.8853905200000001    0.1472061600000000 S
   0.4166298800000000    0.4953712300000000    0.0798205600000000 S
   0.5833701200000000    0.5046287700000001    0.9201794400000001 S
   0.0833701200000000    0.5046287700000001    0.5798205600000000 S
   0.5833701200000000    0.9953712300000001    0.4201794400000000 S
   0.9166298800000000    0.4953712300000000    0.4201794400000000 S
   0.4166298800000000    0.0046287700000000    0.5798205600000000 S
   0.9166298800000000    0.0046287700000000    0.9201794400000001 S
   0.0833701200000000    0.9953712300000001    0.0798205600000000 S
   0.3108914400000000    0.1130402100000000    0.0149831100000000 S
   0.6891085600000000    0.8869597900000000    0.9850168900000000 S
   0.1891085600000000    0.8869597900000000    0.5149831100000000 S
   0.6891085600000000    0.6130402100000000    0.4850168900000000 S
   0.8108914400000000    0.1130402100000000    0.4850168900000000 S
   0.3108914400000000    0.3869597900000000    0.5149831100000000 S
   0.8108914400000000    0.3869597900000000    0.9850168900000000 S
   0.1891085600000000    0.6130402100000000    0.0149831100000000 S
   0.1350767100000000    0.1021350900000000    0.3103570300000000 S
   0.8649232900000000    0.8978649100000000    0.6896429700000000 S
   0.3649232900000000    0.8978649100000000    0.8103570300000000 S
   0.8649232900000000    0.6021350900000000    0.1896429700000000 S
   0.6350767100000000    0.1021350900000000    0.1896429700000000 S
   0.1350767100000000    0.3978649100000000    0.8103570300000000 S
   0.6350767100000000    0.3978649100000000    0.6896429700000000 S
   0.3649232900000000    0.6021350900000000    0.3103570300000000 S
   0.1282545100000000    0.3850341500000000    0.2454790200000000 S
   0.8717454900000000    0.6149658500000000    0.7545209800000000 S
   0.3717454900000000    0.6149658500000000    0.7454790200000000 S
   0.8717454900000000    0.8850341500000000    0.2545209800000000 S
   0.6282545100000000    0.3850341500000000    0.2545209800000000 S
   0.1282545100000000    0.1149658500000000    0.7454790200000000 S
   0.6282545100000000    0.1149658500000000    0.7545209800000000 S
   0.3717454900000000    0.8850341500000000    0.2454790200000000 S
   0.1756073700000000    0.0610617900000000    0.4328604800000000 S
   0.8243926300000001    0.9389382100000000    0.5671395200000000 S
   0.3243926300000000    0.9389382100000000    0.9328604800000000 S
   0.8243926300000001    0.5610617900000000    0.0671395200000000 S
   0.6756073700000000    0.0610617900000000    0.0671395200000000 S
   0.1756073700000000    0.4389382100000000    0.9328604800000000 S
   0.6756073700000000    0.4389382100000000    0.5671395200000000 S
   0.3243926300000000    0.5610617900000000    0.4328604800000000 S
