Cu6 Hg3 Sb4 S12
1.0
   7.0852440000000003    4.0906680000000000    3.2014060000000000
  -7.0852440000000003    4.0906680000000000    3.2014060000000000
   0.0000000000000000   -8.1813359999999999    3.2014060000000000
Cu Hg Sb S
6 3 4 12
direct
   0.2297239999999990    0.7049130000000000    0.0824620000000000 Cu
   0.7049130000000000    0.0824620000000000    0.2297239999999990 Cu
   0.0824620000000000    0.2297239999999990    0.7049130000000000 Cu
   0.1877000000000000    0.4560650000000000    0.4004729999999990 Cu
   0.4560650000000000    0.4004729999999990    0.1877000000000000 Cu
   0.4004729999999990    0.1877000000000000    0.4560650000000000 Cu
   0.9276200000000001    0.7870279999999999    0.3171400000000000 Hg
   0.7870279999999999    0.3171400000000000    0.9276200000000001 Hg
   0.3171400000000000    0.9276200000000001    0.7870279999999999 Hg
   0.6187270000000000    0.8309409999999990    0.5485380000000000 Sb
   0.8309409999999990    0.5485380000000000    0.6187270000000000 Sb
   0.5485380000000000    0.6187270000000000    0.8309409999999990 Sb
   0.9825140000000000    0.9825140000000000    0.9825140000000000 Sb
   0.8265530000000000    0.0129310000000000    0.4590039999999990 S
   0.0129310000000000    0.4590039999999990    0.8265530000000000 S
   0.4590039999999990    0.8265530000000000    0.0129310000000000 S
   0.0594090000000000    0.6411410000000000    0.5077800000000000 S
   0.6411410000000000    0.5077800000000000    0.0594090000000000 S
   0.5077800000000000    0.0594090000000000    0.6411410000000000 S
   0.1655080000000000    0.9299379999999990    0.2217730000000000 S
   0.9299379999999990    0.2217730000000000    0.1655080000000000 S
   0.2217730000000000    0.1655080000000000    0.9299379999999990 S
   0.3487030000000000    0.6004060000000000    0.2820080000000000 S
   0.6004060000000000    0.2820080000000000    0.3487030000000000 S
   0.2820080000000000    0.3487030000000000    0.6004060000000000 S
