Hg6 Bi4 Te4 Cl16
1.0
   3.8786106999999999    8.8599180400000002    0.0458365100000000
  -3.8786106999999999    8.8599180400000002    0.0458365100000000
   0.0000000000000000    3.4068226799999999   13.1128588100000005
Hg Bi Te Cl
6 4 4 16
direct
   0.5000000000000000    0.0000000000000000    0.0000000000000000 Hg
  -0.0000000000000000    0.5000000000000000    0.5000000000000000 Hg
   0.2602710700000000    0.2317454100000000    0.7443561900000000 Hg
   0.7682545900000001    0.7397289300000001    0.7556438100000000 Hg
   0.7397289300000001    0.7682545900000001    0.2556438100000000 Hg
   0.2317454100000000    0.2602710700000000    0.2443561900000000 Hg
   0.1938753000000000    0.7276809800000000    0.9368819700000001 Bi
   0.2723190200000000    0.8061246999999990    0.5631180300000000 Bi
   0.8061246999999990    0.2723190200000000    0.0631180300000000 Bi
   0.7276809800000000    0.1938753000000000    0.4368819700000000 Bi
   0.5851078500000000    0.0848303000000000    0.8051891999999991 Te
   0.9151697000000000    0.4148921500000000    0.6948108000000000 Te
   0.4148921500000000    0.9151697000000000    0.1948107999999990 Te
   0.0848303000000000    0.5851078500000000    0.3051892000000000 Te
   0.4220574100000000    0.3743140100000000    0.0359527100000000 Cl
   0.6256859900000000    0.5779425900000000    0.4640472900000000 Cl
   0.5779425900000000    0.6256859900000000    0.9640472900000000 Cl
   0.3743140100000000    0.4220574100000000    0.5359527100000000 Cl
   0.1668644700000000    0.6299050400000000    0.7756811900000000 Cl
   0.3700949600000000    0.8331355300000001    0.7243188100000000 Cl
   0.8331355300000001    0.3700949600000000    0.2243188100000000 Cl
   0.6299050400000000    0.1668644700000000    0.2756811900000000 Cl
   0.9344057700000000    0.7186437100000000    0.0244286600000000 Cl
   0.2813562900000000    0.0655942300000000    0.4755713400000000 Cl
   0.0655942300000000    0.2813562900000000    0.9755713400000000 Cl
   0.7186437100000000    0.9344057700000000    0.5244286600000000 Cl
   0.1071156100000000    0.8916525200000001    0.1117697700000000 Cl
   0.1083474800000000    0.8928843900000000    0.3882302300000000 Cl
   0.8928843900000000    0.1083474800000000    0.8882302300000000 Cl
   0.8916525200000001    0.1071156100000000    0.6117697700000000 Cl
