Ag16 Sb48 Pb16 S96
1.0
   0.0264549700000000    0.0000000000000000  -13.2573100799999999
   0.0000000000000000  -17.2793594900000009    0.0000000000000000
 -19.4614532300000000    0.0000000000000000    0.0416301100000000
Ag Sb Pb S
16 48 16 96
direct
   0.6506736800000000    0.3136715700000000    0.6439432800000000 Ag
   0.8493263200000000    0.8136715700000000    0.3560567200000000 Ag
   0.3493263200000000    0.6863284300000000    0.3560567200000000 Ag
   0.1506736800000000    0.1863284300000000    0.6439432800000000 Ag
   0.1657950000000000    0.6780389500000000    0.8568683300000001 Ag
   0.3342050000000000    0.1780389500000000    0.1431316700000000 Ag
   0.8342050000000000    0.3219610500000000    0.1431316700000000 Ag
   0.6657949999999990    0.8219610500000000    0.8568683300000001 Ag
   0.6745983000000000    0.5523431700000000    0.6443937400000000 Ag
   0.8254017000000000    0.0523431700000000    0.3556062600000000 Ag
   0.3254016999999990    0.4476568300000000    0.3556062600000000 Ag
   0.1745982999999990    0.9476568300000000    0.6443937400000000 Ag
   0.1655907300000000    0.4328177300000000    0.8669211999999999 Ag
   0.3344092700000000    0.9328177300000000    0.1330788000000000 Ag
   0.8344092700000000    0.5671822700000000    0.1330788000000000 Ag
   0.6655907300000000    0.0671822700000000    0.8669211999999999 Ag
   0.1535696800000000    0.1898278700000000    0.8769684700000000 Sb
   0.3464303200000000    0.6898278700000000    0.1230315300000000 Sb
   0.8464303200000001    0.8101721300000000    0.1230315300000000 Sb
   0.6535696800000000    0.3101721300000000    0.8769684700000000 Sb
   0.1141279100000000    0.8004227300000000    0.0442127600000000 Sb
   0.3858720900000000    0.3004227300000000    0.9557872400000000 Sb
   0.8858720900000000    0.1995772700000000    0.9557872400000000 Sb
   0.6141279100000000    0.6995772700000000    0.0442127600000000 Sb
   0.3759606600000000    0.3165972300000000    0.5539248800000001 Sb
   0.1240393400000000    0.8165972300000001    0.4460751200000000 Sb
   0.6240393400000001    0.6834027700000000    0.4460751200000000 Sb
   0.8759606600000001    0.1834027700000000    0.5539248800000001 Sb
   0.8746759300000000    0.6854216300000000    0.5523527100000000 Sb
   0.6253240700000000    0.1854216300000000    0.4476472900000000 Sb
   0.1253240700000000    0.3145783700000000    0.4476472900000000 Sb
   0.3746759300000000    0.8145783700000000    0.5523527100000000 Sb
   0.3655621100000000    0.8281574700000001    0.9416398700000000 Sb
   0.1344378900000000    0.3281574700000000    0.0583601300000000 Sb
   0.6344378900000001    0.1718425300000000    0.0583601300000000 Sb
   0.8655621100000001    0.6718425300000000    0.9416398700000000 Sb
   0.1259078500000000    0.6899440900000000    0.6365005000000000 Sb
   0.3740921500000000    0.1899440900000000    0.3634995000000000 Sb
   0.8740921500000001    0.3100559100000000    0.3634995000000000 Sb
   0.6259078500000000    0.8100559100000000    0.6365005000000000 Sb
   0.6225805600000001    0.5671115700000000    0.8515553000000000 Sb
   0.8774194400000001    0.0671115700000000    0.1484446999999990 Sb
   0.3774194400000000    0.4328884300000000    0.1484446999999990 Sb
   0.1225805600000000    0.9328884300000000    0.8515553000000000 Sb
   0.3763853500000000    0.5644399200000000    0.9393324900000000 Sb
   0.1236146500000000    0.0644399200000000    0.0606675100000000 Sb
   0.6236146500000000    0.4355600800000000    0.0606675100000000 Sb
   0.8763853500000001    0.9355600800000000    0.9393324900000000 Sb
   0.1473413600000000    0.4338410600000000    0.6271529100000001 Sb
   0.3526586400000000    0.9338410600000000    0.3728470900000000 Sb
   0.8526586400000000    0.5661589400000000    0.3728470900000000 Sb
   0.6473413600000000    0.0661589400000000    0.6271529100000001 Sb
   0.8680979100000000    0.4208081400000000    0.5596333700000000 Sb
   0.6319020900000000    0.9208081400000000    0.4403666300000000 Sb
   0.1319020900000000    0.5791918600000000    0.4403666300000000 Sb
   0.3680979100000000    0.0791918600000000    0.5596333700000000 Sb
   0.3812478700000000    0.0632692400000000    0.9547668700000000 Sb
   0.1187521300000000    0.5632692400000000    0.0452331300000000 Sb
   0.6187521300000001    0.9367307600000000    0.0452331300000000 Sb
   0.8812478700000000    0.4367307600000000    0.9547668700000000 Sb
   0.6198424400000000    0.4471381900000000    0.4546266500000000 Sb
   0.8801575600000000    0.9471381900000000    0.5453733500000000 Sb
   0.3801575600000000    0.5528618100000000    0.5453733500000000 Sb
   0.1198424400000000    0.0528618100000000    0.4546266500000000 Sb
   0.9275193400000000    0.3251256300000000    0.7565751700000000 Pb
   0.5724806600000000    0.8251256300000001    0.2434248300000000 Pb
   0.0724806600000000    0.6748743700000001    0.2434248300000000 Pb
   0.4275193400000000    0.1748743700000000    0.7565751700000000 Pb
   0.8974575200000000    0.8076623500000000    0.7502489800000001 Pb
   0.6025424800000000    0.3076623500000000    0.2497510200000000 Pb
   0.1025424800000000    0.1923376500000000    0.2497510200000000 Pb
   0.3974575200000000    0.6923376500000000    0.7502489800000001 Pb
   0.9126293300000000    0.5679604100000000    0.7438430900000000 Pb
   0.5873706700000000    0.0679604100000000    0.2561569100000000 Pb
   0.0873706700000000    0.4320395900000000    0.2561569100000000 Pb
   0.4126293300000000    0.9320395900000000    0.7438430900000000 Pb
   0.4126402200000000    0.4374201300000000    0.7498570700000000 Pb
   0.0873597800000000    0.9374201300000000    0.2501429300000000 Pb
   0.5873597800000000    0.5625798700000000    0.2501429300000000 Pb
   0.9126402200000000    0.0625798700000000    0.7498570700000000 Pb
   0.4743450800000000    0.2002756200000000    0.6002642800000000 S
   0.0256549200000000    0.7002756200000000    0.3997357200000000 S
   0.5256549200000000    0.7997243800000000    0.3997357200000000 S
   0.9743450800000000    0.2997243800000000    0.6002642800000000 S
   0.2081250200000000    0.6991025700000000    0.9837866700000000 S
   0.2918749800000000    0.1991025700000000    0.0162133300000000 S
   0.7918749800000000    0.3008974300000000    0.0162133300000000 S
   0.7081250200000000    0.8008974300000000    0.9837866700000000 S
   0.4926820600000000    0.6695990600000000    0.8936464700000000 S
   0.0073179400000000    0.1695990600000000    0.1063535300000000 S
   0.5073179400000000    0.3304009400000000    0.1063535300000000 S
   0.9926820600000000    0.8304009400000000    0.8936464700000000 S
   0.2815742800000000    0.2931450100000000    0.8457785999999990 S
   0.2184257200000000    0.7931450100000000    0.1542213999999990 S
   0.7184257200000000    0.7068549900000000    0.1542213999999990 S
   0.7815742800000001    0.2068549900000000    0.8457785999999990 S
   0.5100609600000000    0.1487576100000000    0.9059335900000001 S
   0.9899390400000000    0.6487576100000000    0.0940664100000000 S
   0.4899390400000000    0.8512423900000000    0.0940664100000000 S
   0.0100609600000000    0.3512423900000000    0.9059335900000001 S
   0.7343687300000000    0.3354431900000000    0.5040764000000000 S
   0.7656312700000000    0.8354431900000000    0.4959235999999990 S
   0.2656312700000000    0.6645568100000000    0.4959235999999990 S
   0.2343687300000000    0.1645568100000000    0.5040764000000000 S
   0.2803983200000000    0.8132349300000000    0.8288837300000000 S
   0.2196016800000000    0.3132349300000000    0.1711162700000000 S
   0.7196016800000000    0.1867650700000000    0.1711162700000000 S
   0.7803983200000000    0.6867650700000000    0.8288837300000000 S
   0.0655201100000000    0.1900453300000000    0.7658753900000000 S
   0.4344798900000000    0.6900453300000000    0.2341246100000000 S
   0.9344798900000000    0.8099546700000000    0.2341246100000000 S
   0.5655201100000000    0.3099546700000000    0.7658753900000000 S
   0.9961957900000000    0.7884447000000000    0.5919697700000001 S
   0.5038042100000000    0.2884447000000000    0.4080302300000000 S
   0.0038042100000000    0.2115553000000000    0.4080302300000000 S
   0.4961957900000000    0.7115553000000000    0.5919697700000001 S
   0.7726288700000000    0.6875065500000000    0.6584368100000000 S
   0.7273711300000000    0.1875065500000000    0.3415631900000000 S
   0.2273711300000000    0.3124934500000000    0.3415631900000000 S
   0.2726288700000000    0.8124934500000001    0.6584368100000000 S
   0.0509330100000000    0.6946434800000000    0.7554744800000001 S
   0.4490669900000000    0.1946434800000000    0.2445255200000000 S
   0.9490669900000001    0.3053565200000000    0.2445255200000000 S
   0.5509330100000001    0.8053565200000000    0.7554744800000001 S
   0.2596984800000000    0.3210284900000000    0.6587876700000000 S
   0.2403015200000000    0.8210284900000000    0.3412123300000000 S
   0.7403015200000000    0.6789715100000000    0.3412123300000000 S
   0.7596984800000001    0.1789715100000000    0.6587876700000000 S
   0.4986918700000000    0.4623163900000000    0.9019902999999990 S
   0.0013081300000000    0.9623163900000000    0.0980096999999990 S
   0.5013081300000000    0.5376836100000000    0.0980096999999990 S
   0.9986918700000000    0.0376836100000000    0.9019902999999990 S
   0.2270027700000000    0.9095349900000000    0.9972405400000001 S
   0.2729972300000000    0.4095349900000000    0.0027594600000000 S
   0.7729972300000000    0.0904650100000000    0.0027594600000000 S
   0.7270027700000000    0.5904650100000000    0.9972405400000001 S
   0.2732348800000000    0.5409397700000000    0.6558382900000000 S
   0.2267651200000000    0.0409397700000000    0.3441617100000000 S
   0.7267651200000000    0.4590602300000000    0.3441617100000000 S
   0.7732348800000001    0.9590602300000001    0.6558382900000000 S
   0.4711073100000000    0.9422542600000000    0.9024170400000000 S
   0.0288926900000000    0.4422542600000000    0.0975829600000000 S
   0.5288926900000001    0.0577457400000000    0.0975829600000000 S
   0.9711073100000001    0.5577457400000000    0.9024170400000000 S
   0.2664921000000000    0.0763153500000000    0.8478142900000000 S
   0.2335079000000000    0.5763153500000000    0.1521857100000000 S
   0.7335079000000000    0.9236846500000000    0.1521857100000000 S
   0.7664921000000000    0.4236846500000000    0.8478142900000000 S
   0.7214445300000000    0.5430118500000000    0.5166193300000000 S
   0.7785554700000000    0.0430118500000000    0.4833806700000000 S
   0.2785554700000000    0.4569881500000000    0.4833806700000000 S
   0.2214445300000000    0.9569881500000000    0.5166193300000000 S
   0.0727772000000000    0.4447940600000000    0.7425524900000000 S
   0.4272227999999990    0.9447940600000000    0.2574475100000000 S
   0.9272227999999991    0.5552059400000000    0.2574475100000000 S
   0.5727772000000000    0.0552059400000000    0.7425524900000000 S
   0.4972820200000000    0.4117814800000000    0.5989113500000001 S
   0.0027179800000000    0.9117814800000000    0.4010886500000000 S
   0.5027179800000000    0.5882185200000000    0.4010886500000000 S
   0.9972820200000000    0.0882185200000000    0.5989113500000001 S
   0.9926766800000000    0.5820093300000000    0.5971268000000000 S
   0.5073233200000000    0.0820093300000000    0.4028732000000000 S
   0.0073233200000000    0.4179906700000000    0.4028732000000000 S
   0.4926766800000000    0.9179906700000000    0.5971268000000000 S
   0.2718824900000000    0.5521585300000000    0.8367114500000000 S
   0.2281175100000000    0.0521585300000000    0.1632885500000000 S
   0.7281175100000000    0.4478414700000000    0.1632885500000000 S
   0.7718824900000000    0.9478414700000001    0.8367114500000000 S
   0.5419039200000000    0.5639334900000000    0.7334120000000000 S
   0.9580960800000000    0.0639334900000000    0.2665880000000000 S
   0.4580960800000000    0.4360665100000000    0.2665880000000000 S
   0.0419039200000000    0.9360665100000001    0.7334120000000000 S
   0.7862661300000000    0.4284461000000000    0.6714892500000000 S
   0.7137338700000000    0.9284460999999991    0.3285107500000000 S
   0.2137338700000000    0.5715538999999999    0.3285107500000000 S
   0.2862661300000000    0.0715539000000000    0.6714892500000000 S
