Ba16 Sb16 Se44
1.0
   9.1196760000000001    0.0000000000000000    0.0000000000000000
   0.0000000000000000    9.3243810000000007    0.0000000000000000
   0.0000000000000000    0.0000000000000000   28.3121459999999985
Ba Sb Se
16 16 44
direct
   0.6522600000000001    0.7470230000000000    0.9405700000000001 Ba
   0.1522600000000000    0.7529770000000000    0.5594300000000001 Ba
   0.3477400000000000    0.7470230000000000    0.0594300000000000 Ba
   0.8477400000000000    0.7529770000000000    0.4405700000000000 Ba
   0.3477400000000000    0.2529770000000000    0.0594300000000000 Ba
   0.8477400000000000    0.2470230000000000    0.4405700000000000 Ba
   0.6522600000000001    0.2529770000000000    0.9405700000000001 Ba
   0.1522600000000000    0.2470230000000000    0.5594300000000001 Ba
   0.4329329999999990    0.7479150000000000    0.7091219999999990 Ba
   0.9329330000000000    0.7520850000000000    0.7908780000000000 Ba
   0.5670670000000000    0.7479150000000000    0.2908779999999990 Ba
   0.0670670000000000    0.7520850000000000    0.2091220000000000 Ba
   0.5670670000000000    0.2520850000000000    0.2908779999999990 Ba
   0.0670670000000000    0.2479150000000000    0.2091220000000000 Ba
   0.4329329999999990    0.2520850000000000    0.7091219999999990 Ba
   0.9329330000000000    0.2479150000000000    0.7908780000000000 Ba
   0.9170229999999990    0.5000000000000000    0.0638020000000000 Sb
   0.4170230000000000    0.0000000000000000    0.4361980000000000 Sb
   0.0829770000000000    0.5000000000000000    0.9361980000000000 Sb
   0.5829770000000000    0.0000000000000000    0.5638020000000000 Sb
   0.4606130000000000    0.5000000000000000    0.4274020000000000 Sb
   0.9606129999999991    0.0000000000000000    0.0725980000000000 Sb
   0.5393869999999999    0.5000000000000000    0.5725979999999991 Sb
   0.0393870000000000    0.0000000000000000    0.9274019999999999 Sb
   0.1312690000000000    0.5000000000000000    0.3429730000000000 Sb
   0.6312690000000000    0.0000000000000000    0.1570270000000000 Sb
   0.8687309999999990    0.5000000000000000    0.6570269999999990 Sb
   0.3687310000000000    0.0000000000000000    0.8429730000000000 Sb
   0.6368490000000000    0.5000000000000000    0.1607380000000000 Sb
   0.1368490000000000    0.0000000000000000    0.3392620000000000 Sb
   0.3631510000000000    0.5000000000000000    0.8392620000000000 Sb
   0.8631510000000000    0.0000000000000000    0.6607379999999990 Sb
   0.1011700000000000    0.5000000000000000    0.4723529999999990 Se
   0.6011700000000001    0.0000000000000000    0.0276469999999990 Se
   0.8988300000000000    0.5000000000000000    0.5276470000000000 Se
   0.3988300000000000    0.0000000000000000    0.9723529999999990 Se
   0.2730340000000000    0.5000000000000000    0.2640470000000000 Se
   0.7730340000000000    0.0000000000000000    0.2359530000000000 Se
   0.7269660000000000    0.5000000000000000    0.7359530000000000 Se
   0.2269660000000000    0.0000000000000000    0.7640469999999990 Se
   0.5000000000000000    0.7983420000000000    0.5000000000000000 Se
   0.0000000000000000    0.7016580000000000    0.0000000000000000 Se
   0.5000000000000000    0.2016580000000000    0.5000000000000000 Se
   0.0000000000000000    0.2983420000000000    0.0000000000000000 Se
   0.5988080000000000    0.5000000000000000    0.0300469999999990 Se
   0.0988079999999990    0.0000000000000000    0.4699529999999990 Se
   0.4011920000000000    0.5000000000000000    0.9699530000000000 Se
   0.9011920000000000    0.0000000000000000    0.5300469999999990 Se
   0.7903270000000000    0.5000000000000000    0.2385330000000000 Se
   0.2903270000000000    0.0000000000000000    0.2614670000000000 Se
   0.3189990000000000    0.2944470000000000    0.3836110000000000 Se
   0.2096730000000000    0.5000000000000000    0.7614670000000000 Se
   0.6951720000000000    0.5000000000000000    0.3742430000000000 Se
   0.1951719999999990    0.0000000000000000    0.1257570000000000 Se
   0.3048280000000000    0.5000000000000000    0.6257570000000000 Se
   0.8048280000000000    0.0000000000000000    0.8742430000000000 Se
   0.1493500000000000    0.5000000000000000    0.1179200000000000 Se
   0.6493500000000001    0.0000000000000000    0.3820800000000000 Se
   0.8506500000000000    0.5000000000000000    0.8820800000000001 Se
   0.3506500000000000    0.0000000000000000    0.6179200000000000 Se
   0.6810010000000000    0.7055530000000000    0.6163890000000000 Se
   0.1810010000000000    0.7944470000000000    0.8836109999999990 Se
   0.3189990000000000    0.7055530000000000    0.3836110000000000 Se
   0.8189989999999990    0.7944470000000000    0.1163889999999990 Se
   0.5384550000000000    0.2781349999999990    0.8250090000000000 Se
   0.0384549999999990    0.2218649999999990    0.6749910000000000 Se
   0.4615450000000000    0.2781349999999990    0.1749909999999990 Se
   0.9615450000000000    0.2218649999999990    0.3250090000000000 Se
   0.4615450000000000    0.7218650000000000    0.1749909999999990 Se
   0.9615450000000000    0.7781349999999990    0.3250090000000000 Se
   0.5384550000000000    0.7218650000000000    0.8250090000000000 Se
   0.0384549999999990    0.7781349999999990    0.6749910000000000 Se
   0.1810010000000000    0.2055529999999990    0.8836109999999990 Se
   0.6810010000000000    0.2944470000000000    0.6163890000000000 Se
   0.8189989999999990    0.2055529999999990    0.1163889999999990 Se
   0.7096730000000000    0.0000000000000000    0.7385330000000000 Se
