Li12 Bi4 S12
1.0
   8.1392129999999998    0.0000000000000000    0.0000000000000000
   0.0000000000000000    8.1392129999999998    0.0000000000000000
   0.0000000000000000    0.0000000000000000    8.1392129999999998
Li Bi S
12 4 12
direct
   0.0307549999999990    0.9692449999999990    0.4692449999999990 Li
   0.1792810000000000    0.6792810000000000    0.8207190000000000 Li
   0.2040769999999990    0.2959230000000000    0.7040770000000000 Li
   0.2959230000000000    0.7040770000000000    0.2040769999999990 Li
   0.3207190000000000    0.3207190000000000    0.3207190000000000 Li
   0.4692449999999990    0.0307549999999990    0.9692449999999990 Li
   0.5307550000000000    0.5307550000000000    0.5307550000000000 Li
   0.6792810000000000    0.8207190000000000    0.1792810000000000 Li
   0.7040770000000000    0.2040769999999990    0.2959230000000000 Li
   0.7959229999999990    0.7959229999999990    0.7959229999999990 Li
   0.8207190000000000    0.1792810000000000    0.6792810000000000 Li
   0.9692449999999990    0.4692449999999990    0.0307549999999990 Li
   0.0755150000000000    0.0755150000000000    0.0755150000000000 Bi
   0.4244850000000000    0.9244850000000000    0.5755150000000000 Bi
   0.5755150000000000    0.4244850000000000    0.9244850000000000 Bi
   0.9244850000000000    0.5755150000000000    0.4244850000000000 Bi
   0.9941519999999990    0.7486079999999991    0.1229960000000000 S
   0.1229960000000000    0.9941519999999990    0.7486079999999991 S
   0.2513920000000000    0.6229960000000000    0.5058480000000000 S
   0.2486080000000000    0.3770040000000000    0.0058480000000000 S
   0.3770040000000000    0.0058480000000000    0.2486080000000000 S
   0.5058480000000000    0.2513920000000000    0.6229960000000000 S
   0.4941520000000000    0.7513919999999999    0.8770040000000000 S
   0.6229960000000000    0.5058480000000000    0.2513920000000000 S
   0.7513919999999999    0.8770040000000000    0.4941520000000000 S
   0.7486079999999991    0.1229960000000000    0.9941519999999990 S
   0.8770040000000000    0.4941520000000000    0.7513919999999999 S
   0.0058480000000000    0.2486080000000000    0.3770040000000000 S
