K12 Bi4 Te12
1.0
  10.4266093699999995   -0.0000000000000000   -0.0000000000000000
  -0.0000000000000000   10.4266093699999995   -0.0000000000000000
   0.0000000000000000   -0.0000000000000000   10.4266093699999995
K Bi Te
12 4 12
direct
   0.5750497700000000    0.5750497700000000    0.5750497700000000 K
   0.9249502300000000    0.4249502300000000    0.0750497700000000 K
   0.0750497700000000    0.9249502300000000    0.4249502300000000 K
   0.4249502300000000    0.0750497700000000    0.9249502300000000 K
   0.3262167300000000    0.3262167300000000    0.3262167300000000 K
   0.1737832700000000    0.6737832700000000    0.8262167300000001 K
   0.8262167300000001    0.1737832700000000    0.6737832700000000 K
   0.6737832700000000    0.8262167300000001    0.1737832700000000 K
   0.8183595700000000    0.8183595700000000    0.8183595700000000 K
   0.6816404300000000    0.1816404300000000    0.3183595700000000 K
   0.3183595700000000    0.6816404300000000    0.1816404300000000 K
   0.1816404300000000    0.3183595700000000    0.6816404300000000 K
   0.9642630999999990    0.5357369000000000    0.4642631000000000 Bi
   0.4642631000000000    0.9642630999999990    0.5357369000000000 Bi
   0.0357368999999990    0.0357368999999990    0.0357368999999990 Bi
   0.5357369000000000    0.4642631000000000    0.9642630999999990 Bi
   0.7722099500000000    0.1170338600000000    0.9996935800000000 Te
   0.7277900500000000    0.8829661400000001    0.4996935800000000 Te
   0.2722099500000000    0.3829661400000000    0.0003064200000000 Te
   0.1170338600000000    0.9996935800000000    0.7722099500000000 Te
   0.2277900500000000    0.6170338600000000    0.5003064200000000 Te
   0.5003064200000000    0.2277900500000000    0.6170338600000000 Te
   0.6170338600000000    0.5003064200000000    0.2277900500000000 Te
   0.8829661400000001    0.4996935800000000    0.7277900500000000 Te
   0.0003064200000000    0.2722099500000000    0.3829661400000000 Te
   0.3829661400000000    0.0003064200000000    0.2722099500000000 Te
   0.9996935800000000    0.7722099500000000    0.1170338600000000 Te
   0.4996935800000000    0.7277900500000000    0.8829661400000001 Te
