Na12 As4 H96 Se4 O60
1.0
   9.3086990000000007    0.0000000000000000    0.0000000000000000
   0.0000000000000000   13.1407880000000006    0.0000000000000000
   0.0000000000000000    0.0000000000000000   13.9279630000000001
Na As H Se O
12 4 96 4 60
direct
   0.7490310000000000    0.0083839999999990    0.9794759999999991 Na
   0.7509690000000000    0.9916159999999991    0.4794759999999990 Na
   0.2490310000000000    0.4916160000000000    0.0205240000000000 Na
   0.2509690000000000    0.5083839999999999    0.5205240000000000 Na
   0.7411019999999990    0.2124440000000000    0.1003100000000000 Na
   0.7588980000000000    0.7875559999999990    0.6003100000000000 Na
   0.2411019999999990    0.2875560000000000    0.8996900000000001 Na
   0.2588979999999990    0.7124440000000000    0.3996900000000000 Na
   0.7450430000000000    0.2180730000000000    0.3907980000000000 Na
   0.7549570000000000    0.7819269999999990    0.8907980000000000 Na
   0.2450429999999990    0.2819270000000000    0.6092020000000000 Na
   0.2549570000000000    0.7180730000000000    0.1092020000000000 Na
   0.7480910000000000    0.5406650000000000    0.2728720000000000 As
   0.7519089999999991    0.4593350000000000    0.7728720000000000 As
   0.2480909999999990    0.9593349999999990    0.7271280000000000 As
   0.2519090000000000    0.0406650000000000    0.2271280000000000 As
   0.9898169999999999    0.0849400000000000    0.0576809999999990 H
   0.5101829999999991    0.9150600000000001    0.5576810000000000 H
   0.4898170000000000    0.4150600000000000    0.9423189999999990 H
   0.0101830000000000    0.5849400000000000    0.4423189999999990 H
   0.9595889999999990    0.0383639999999990    0.1574829999999990 H
   0.5404110000000000    0.9616359999999990    0.6574829999999990 H
   0.4595889999999990    0.4616360000000000    0.8425170000000000 H
   0.0404109999999990    0.5383640000000000    0.3425169999999990 H
   0.0122860000000000    0.3594630000000000    0.0258940000000000 H
   0.4877140000000000    0.6405370000000000    0.5258940000000000 H
   0.5122860000000000    0.1405370000000000    0.9741059999999990 H
   0.9877140000000000    0.8594630000000000    0.4741059999999990 H
   0.9712059999999991    0.4144080000000000    0.9294439999999990 H
   0.5287940000000000    0.5855920000000000    0.4294440000000000 H
   0.4712059999999990    0.0855920000000000    0.0705560000000000 H
   0.0287940000000000    0.9144080000000000    0.5705560000000000 H
   0.7787109999999990    0.0340590000000000    0.2909110000000000 H
   0.7212890000000000    0.9659409999999991    0.7909109999999990 H
   0.2787110000000000    0.4659410000000000    0.7090890000000000 H
   0.2212889999999990    0.5340590000000000    0.2090890000000000 H
   0.9451579999999991    0.0428360000000000    0.3116720000000000 H
   0.5548419999999999    0.9571639999999991    0.8116719999999999 H
   0.4451580000000000    0.4571639999999990    0.6883279999999991 H
   0.0548419999999990    0.5428360000000000    0.1883280000000000 H
   0.4989510000000000    0.1197370000000000    0.4867500000000000 H
   0.0010490000000000    0.8802629999999990    0.9867500000000001 H
   0.9989509999999990    0.3802629999999990    0.5132500000000001 H
   0.5010490000000000    0.6197370000000000    0.0132500000000000 H
   0.4786900000000001    0.0652830000000000    0.3844320000000000 H
   0.0213100000000000    0.9347169999999990    0.8844320000000000 H
   0.9786900000000001    0.4347169999999990    0.6155680000000000 H
   0.5213100000000001    0.5652830000000000    0.1155679999999990 H
   0.5139020000000000    0.2461209999999990    0.2541710000000000 H
   0.9860979999999990    0.7538790000000000    0.7541709999999990 H
   0.0139020000000000    0.2538789999999990    0.7458290000000000 H
   0.4860980000000000    0.7461209999999990    0.2458290000000000 H
   0.6087210000000000    0.3436900000000001    0.2346700000000000 H
   0.8912789999999990    0.6563100000000001    0.7346700000000000 H
   0.1087210000000000    0.1563100000000000    0.7653300000000001 H
   0.3912790000000000    0.8436900000000001    0.2653300000000000 H
   0.7099300000000001    0.4028460000000000    0.9787439999999999 H
   0.7900700000000001    0.5971540000000000    0.4787440000000000 H
   0.2099300000000000    0.0971539999999990    0.0212560000000000 H
   0.2900700000000001    0.9028459999999990    0.5212559999999991 H
   0.6534600000000000    0.4189750000000000    0.0864429999999990 H
   0.8465400000000001    0.5810250000000000    0.5864429999999990 H
   0.1534600000000000    0.0810250000000000    0.9135570000000000 H
   0.3465400000000000    0.9189750000000000    0.4135570000000000 H
   0.9371910000000000    0.3889140000000000    0.3460120000000000 H
   0.5628090000000000    0.6110860000000000    0.8460120000000000 H
   0.4371910000000000    0.1110859999999990    0.6539880000000000 H
   0.0628090000000000    0.8889140000000000    0.1539879999999990 H
   0.0341520000000000    0.2928210000000000    0.3654759999999990 H
   0.4658480000000000    0.7071790000000000    0.8654759999999990 H
   0.5341520000000000    0.2071790000000000    0.6345240000000000 H
   0.9658479999999990    0.7928210000000000    0.1345240000000000 H
   0.6644439999999990    0.4243670000000000    0.4485240000000000 H
   0.8355560000000000    0.5756330000000000    0.9485239999999990 H
   0.1644439999999990    0.0756329999999990    0.5514760000000000 H
   0.3355559999999990    0.9243669999999991    0.0514760000000000 H
   0.6644620000000000    0.3615330000000000    0.5479220000000000 H
   0.8355380000000000    0.6384670000000000    0.0479220000000000 H
   0.1644620000000000    0.1384670000000000    0.4520780000000000 H
   0.3355380000000000    0.8615330000000000    0.9520780000000000 H
   0.5542640000000000    0.8222480000000000    0.4370620000000000 H
   0.9457359999999990    0.1777520000000000    0.9370620000000000 H
   0.0542640000000000    0.6777520000000000    0.5629379999999991 H
   0.4457359999999990    0.3222480000000000    0.0629380000000000 H
   0.6878740000000000    0.7898569999999990    0.3756040000000000 H
   0.8121260000000000    0.2101430000000000    0.8756039999999990 H
   0.1878739999999990    0.7101430000000000    0.6243960000000000 H
   0.3121259999999990    0.2898570000000000    0.1243959999999990 H
   0.5454400000000000    0.8532970000000000    0.0380729999999990 H
   0.9545600000000001    0.1467030000000000    0.5380730000000000 H
   0.0454400000000000    0.6467029999999990    0.9619270000000000 H
   0.4545600000000000    0.3532969999999990    0.4619270000000000 H
   0.6717320000000000    0.7954749999999990    0.0923610000000000 H
   0.8282680000000000    0.2045249999999990    0.5923610000000000 H
   0.1717320000000000    0.7045250000000000    0.9076390000000000 H
   0.3282680000000000    0.2954750000000000    0.4076390000000000 H
   0.0228430000000000    0.2727179999999990    0.1708470000000000 H
   0.4771570000000000    0.7272820000000000    0.6708470000000000 H
   0.5228429999999999    0.2272819999999990    0.8291529999999990 H
   0.9771569999999991    0.7727180000000000    0.3291530000000000 H
   0.9337810000000000    0.3746350000000000    0.1811170000000000 H
   0.5662190000000000    0.6253649999999999    0.6811170000000000 H
   0.4337809999999990    0.1253650000000000    0.8188829999999990 H
   0.0662190000000000    0.8746349999999991    0.3188829999999990 H
   0.6486379999999990    0.9462760000000000    0.1654540000000000 H
   0.8513620000000000    0.0537240000000000    0.6654540000000000 H
   0.1486380000000000    0.5537240000000000    0.8345460000000000 H
   0.3513620000000000    0.4462760000000000    0.3345460000000000 H
   0.5463830000000000    0.9835389999999991    0.2502160000000000 H
   0.9536169999999990    0.0164610000000000    0.7502160000000000 H
   0.0463830000000000    0.5164609999999999    0.7497840000000000 H
   0.4536170000000000    0.4835390000000000    0.2497839999999990 H
   0.7657269999999990    0.7118559999999990    0.2308990000000000 Se
   0.7342730000000000    0.2881440000000000    0.7308990000000000 Se
   0.2657270000000000    0.7881440000000000    0.7691009999999990 Se
   0.2342729999999990    0.2118560000000000    0.2691010000000000 Se
   0.9123100000000001    0.4794540000000000    0.2596340000000000 O
   0.5876900000000000    0.5205460000000000    0.7596339999999990 O
   0.4123100000000000    0.0205460000000000    0.7403660000000000 O
   0.0876900000000000    0.9794539999999990    0.2403660000000000 O
   0.6954490000000000    0.5320030000000000    0.3915659999999990 O
   0.8045510000000000    0.4679970000000000    0.8915660000000000 O
   0.1954489999999990    0.9679970000000000    0.6084339999999990 O
   0.3045509999999990    0.0320030000000000    0.1084339999999990 O
   0.6235550000000000    0.4792000000000000    0.2006720000000000 O
   0.8764449999999990    0.5208000000000000    0.7006720000000000 O
   0.1235550000000000    0.0208000000000000    0.7993279999999990 O
   0.3764450000000000    0.9792000000000001    0.2993280000000000 O
   0.9103939999999990    0.0712619999999990    0.1025990000000000 O
   0.5896060000000000    0.9287380000000000    0.6025990000000000 O
   0.4103940000000000    0.4287380000000000    0.8974010000000000 O
   0.0896059999999990    0.5712619999999990    0.3974010000000000 O
   0.5545639999999999    0.1121890000000000    0.0338619999999990 O
   0.9454359999999991    0.8878109999999990    0.5338619999999999 O
   0.0545639999999990    0.3878109999999990    0.9661379999999991 O
   0.4454360000000000    0.6121890000000000    0.4661380000000000 O
   0.8502219999999990    0.0636070000000000    0.3368800000000000 O
   0.6497780000000000    0.9363929999999990    0.8368800000000001 O
   0.3502220000000000    0.4363930000000000    0.6631200000000000 O
   0.1497780000000000    0.5636070000000000    0.1631200000000000 O
   0.5489870000000000    0.0998169999999990    0.4270319999999990 O
   0.9510130000000000    0.9001830000000000    0.9270320000000000 O
   0.0489869999999990    0.4001829999999990    0.5729679999999990 O
   0.4510130000000000    0.5998169999999990    0.0729679999999990 O
   0.6138420000000000    0.2692600000000000    0.2473820000000000 O
   0.8861580000000000    0.7307400000000001    0.7473820000000000 O
   0.1138420000000000    0.2307400000000000    0.7526180000000000 O
   0.3861580000000000    0.7692600000000001    0.2526180000000000 O
   0.6467450000000000    0.3729579999999990    0.0298879999999990 O
   0.8532550000000000    0.6270420000000000    0.5298880000000000 O
   0.1467450000000000    0.1270420000000000    0.9701120000000000 O
   0.3532550000000000    0.8729580000000000    0.4701120000000000 O
   0.9534110000000000    0.3314390000000000    0.3925809999999990 O
   0.5465890000000000    0.6685610000000000    0.8925810000000000 O
   0.4534109999999990    0.1685610000000000    0.6074189999999990 O
   0.0465890000000000    0.8314389999999990    0.1074190000000000 O
   0.6356410000000000    0.3579449999999990    0.4802280000000000 O
   0.8643590000000000    0.6420549999999990    0.9802280000000000 O
   0.1356409999999990    0.1420550000000000    0.5197720000000000 O
   0.3643590000000000    0.8579450000000000    0.0197719999999990 O
   0.6593140000000000    0.8264469999999990    0.4344750000000000 O
   0.8406859999999990    0.1735529999999990    0.9344749999999999 O
   0.1593139999999990    0.6735530000000000    0.5655249999999991 O
   0.3406860000000000    0.3264470000000000    0.0655250000000000 O
   0.6507579999999999    0.8561580000000000    0.0531300000000000 O
   0.8492419999999991    0.1438420000000000    0.5531300000000000 O
   0.1507580000000000    0.6438420000000000    0.9468700000000001 O
   0.3492420000000000    0.3561580000000000    0.4468700000000000 O
   0.9482929999999991    0.3138100000000000    0.1391820000000000 O
   0.5517069999999999    0.6861900000000001    0.6391819999999990 O
   0.4482930000000000    0.1861900000000000    0.8608180000000000 O
   0.0517069999999990    0.8138100000000000    0.3608179999999990 O
   0.6452400000000000    0.9888200000000000    0.2236469999999990 O
   0.8547600000000001    0.0111800000000000    0.7236469999999990 O
   0.1452400000000000    0.5111800000000001    0.7763530000000000 O
   0.3547600000000000    0.4888200000000000    0.2763529999999990 O
