K4 Bi12 S20
1.0
   4.0814984100000000   -0.0000000000000000    0.0000000000000000
   0.0000000000000000   16.7030772899999995    0.0000000000000000
   0.0000000000000000    0.0000000000000000   17.7807949299999990
K Bi S
4 12 20
direct
   0.2500000000000000    0.5043072500000000    0.2813041700000000 K
   0.2500000000000000    0.0043072500000000    0.2186958300000000 K
   0.7500000000000000    0.4956927500000000    0.7186958300000000 K
   0.7500000000000000    0.9956927500000000    0.7813041700000000 K
   0.7500000000000000    0.0854420999999990    0.4333692200000000 Bi
   0.7500000000000000    0.5854421000000000    0.0666307800000000 Bi
   0.2500000000000000    0.9145578999999990    0.5666307800000000 Bi
   0.2500000000000000    0.4145579000000000    0.9333692200000000 Bi
   0.7500000000000000    0.3371664900000000    0.1228499000000000 Bi
   0.7500000000000000    0.8371664900000000    0.3771501000000000 Bi
   0.2500000000000000    0.6628335100000000    0.8771500999999990 Bi
   0.2500000000000000    0.1628335100000000    0.6228499000000000 Bi
   0.2500000000000000    0.2426656100000000    0.2906955900000000 Bi
   0.2500000000000000    0.7426656100000000    0.2093044100000000 Bi
   0.7500000000000000    0.7573343900000000    0.7093044100000000 Bi
   0.7500000000000000    0.2573343900000000    0.7906955900000000 Bi
   0.2500000000000000    0.1908958500000000    0.4616718500000000 S
   0.2500000000000000    0.6908958500000000    0.0383281500000000 S
   0.7500000000000000    0.8091041500000000    0.5383281500000000 S
   0.7500000000000000    0.3091041500000000    0.9616718500000000 S
   0.2500000000000000    0.9595145400000000    0.4018971000000000 S
   0.2500000000000000    0.4595145400000000    0.0981028999999990 S
   0.7500000000000000    0.0404854600000000    0.5981029000000000 S
   0.7500000000000000    0.5404854600000000    0.9018971000000000 S
   0.2500000000000000    0.2263303900000000    0.1422723500000000 S
   0.2500000000000000    0.7263303900000000    0.3577276500000000 S
   0.7500000000000000    0.7736696100000000    0.8577276500000001 S
   0.7500000000000000    0.2736696100000000    0.6422723500000000 S
   0.7500000000000000    0.3596089500000000    0.2763779400000000 S
   0.7500000000000000    0.8596089500000000    0.2236220600000000 S
   0.2500000000000000    0.6403910500000000    0.7236220600000001 S
   0.2500000000000000    0.1403910500000000    0.7763779400000000 S
   0.7500000000000000    0.1268369300000000    0.2868524000000000 S
   0.7500000000000000    0.6268369300000000    0.2131476000000000 S
   0.2500000000000000    0.8731630700000000    0.7131476000000000 S
   0.2500000000000000    0.3731630700000000    0.7868524000000000 S
