K12 As4 Se16
1.0
   9.4898174199999996    0.0000000000000000    0.0000000000000000
   0.0000000000000000    9.9091318200000007    0.0000000000000000
   0.0000000000000000    0.0000000000000000   10.9881448699999993
K As Se
12 4 16
direct
   0.6402421500000001    0.4191133100000000    0.7500000000000000 K
   0.1402421500000000    0.0808866900000000    0.7500000000000000 K
   0.3597578500000000    0.5808866900000000    0.2500000000000000 K
   0.8597578500000000    0.9191133100000001    0.2500000000000000 K
   0.5681946400000000    0.1947500400000000    0.0452336000000000 K
   0.0681946400000000    0.3052499600000000    0.4547663999999990 K
   0.4318053600000000    0.8052499600000000    0.5452336000000000 K
   0.9318053600000000    0.6947500400000001    0.9547663999999991 K
   0.4318053600000000    0.8052499600000000    0.9547663999999991 K
   0.9318053600000000    0.6947500400000001    0.5452336000000000 K
   0.5681946400000000    0.1947500400000000    0.4547663999999990 K
   0.0681946400000000    0.3052499600000000    0.0452336000000000 K
   0.7223698600000000    0.9761610500000000    0.7500000000000000 As
   0.2223698600000000    0.5238389500000000    0.7500000000000000 As
   0.2776301400000000    0.0238389500000000    0.2500000000000000 As
   0.7776301400000000    0.4761610500000000    0.2500000000000000 As
   0.8498064700000000    0.0288034800000000    0.5754005200000000 Se
   0.3498064700000000    0.4711965200000000    0.9245994800000000 Se
   0.1501935300000000    0.9711965200000000    0.0754005200000000 Se
   0.6501935300000000    0.5288034800000000    0.4245994800000000 Se
   0.1501935300000000    0.9711965200000000    0.4245994800000000 Se
   0.6501935300000000    0.5288034800000000    0.0754005200000000 Se
   0.8498064700000000    0.0288034800000000    0.9245994800000000 Se
   0.3498064700000000    0.4711965200000000    0.5754005200000000 Se
   0.6758176600000000    0.7463425200000000    0.7500000000000000 Se
   0.1758176600000000    0.7536574800000000    0.7500000000000000 Se
   0.3241823400000000    0.2536574800000000    0.2500000000000000 Se
   0.8241823400000000    0.2463425200000000    0.2500000000000000 Se
   0.5085364800000000    0.0943312600000000    0.7500000000000000 Se
   0.0085364800000000    0.4056687400000000    0.7500000000000000 Se
   0.4914635200000000    0.9056687400000000    0.2500000000000000 Se
   0.9914635200000000    0.5943312600000000    0.2500000000000000 Se
