Sb3 Te1 Cl1 O6
1.0
   2.0730960000000000    7.8953829999999998    0.0000000000000000
  -2.0730960000000000    7.8953829999999998    0.0000000000000000
   0.0000000000000000    5.2949460000000004    8.0786879999999996
Sb Te Cl O
3 1 1 6
direct
   0.1575420000000000    0.1575420000000000    0.5146200000000001 Sb
   0.1592720000000000    0.1592720000000000    0.1455179999999990 Sb
   0.8411620000000000    0.8411620000000000    0.8569030000000000 Sb
   0.8376239999999990    0.8376239999999990    0.4923829999999990 Te
   0.4966580000000000    0.4966580000000000    0.4999249999999991 Cl
   0.7085150000000000    0.7085150000000000    0.5095700000000001 O
   0.3008180000000000    0.3008180000000000    0.4846319999999991 O
   0.2940780000000000    0.2940780000000000    0.9205070000000000 O
   0.7068129999999990    0.7068129999999990    0.0766100000000000 O
   0.7735569999999991    0.7735569999999991    0.7252870000000000 O
   0.2239620000000000    0.2239620000000000    0.2740460000000000 O
