Sb8 Te12 Mo4 C16 O16 F48
1.0
   8.5857440000000000    0.0000000000000000    0.0000000000000000
   0.0000000000000000   14.8664529999999999    0.0000000000000000
   0.0000000000000000    0.0000000000000000   15.6034050000000004
Sb Te Mo C O F
8 12 4 16 16 48
direct
   0.7500000000000000    0.4435679999999990    0.3443660000000000 Sb
   0.7500000000000000    0.0564319999999990    0.8443659999999999 Sb
   0.2500000000000000    0.9435680000000000    0.1556340000000000 Sb
   0.7500000000000000    0.7466769999999990    0.5379020000000000 Sb
   0.7500000000000000    0.7533230000000000    0.0379020000000000 Sb
   0.2500000000000000    0.5564319999999990    0.6556339999999991 Sb
   0.2500000000000000    0.2466769999999990    0.9620980000000000 Sb
   0.2500000000000000    0.2533229999999990    0.4620979999999990 Sb
   0.7500000000000000    0.4450110000000000    0.6286570000000000 Te
   0.0886759999999990    0.6884310000000000    0.2848080000000000 Te
   0.4113239999999990    0.8115690000000000    0.7848080000000000 Te
   0.5886760000000000    0.3115690000000000    0.7151919999999991 Te
   0.7500000000000000    0.0549889999999990    0.1286570000000000 Te
   0.4113239999999990    0.6884310000000000    0.2848080000000000 Te
   0.9113239999999990    0.3115690000000000    0.7151919999999991 Te
   0.9113239999999990    0.1884310000000000    0.2151920000000000 Te
   0.0886759999999990    0.8115690000000000    0.7848080000000000 Te
   0.2500000000000000    0.9450109999999990    0.8713430000000000 Te
   0.2500000000000000    0.5549890000000000    0.3713430000000000 Te
   0.5886760000000000    0.1884310000000000    0.2151920000000000 Te
   0.7500000000000000    0.4451560000000000    0.8131440000000000 Mo
   0.2500000000000000    0.9451560000000000    0.6868560000000000 Mo
   0.2500000000000000    0.5548440000000000    0.1868560000000000 Mo
   0.7500000000000000    0.0548440000000000    0.3131440000000000 Mo
   0.5469450000000000    0.0140250000000000    0.3694360000000000 C
   0.4530550000000000    0.5140250000000000    0.1305639999999990 C
   0.2500000000000000    0.0811720000000000    0.7016120000000000 C
   0.2500000000000000    0.6217539999999990    0.0700490000000000 C
   0.7500000000000000    0.5811720000000000    0.7983880000000000 C
   0.7500000000000000    0.9188280000000000    0.2983880000000000 C
   0.0469450000000000    0.5140250000000000    0.1305639999999990 C
   0.2500000000000000    0.4188280000000000    0.2016119999999990 C
   0.5469450000000000    0.4859750000000000    0.8694360000000000 C
   0.9530550000000000    0.0140250000000000    0.3694360000000000 C
   0.4530550000000000    0.9859749999999990    0.6305640000000000 C
   0.0469450000000000    0.9859749999999990    0.6305640000000000 C
   0.7500000000000000    0.1217540000000000    0.4299509999999990 C
   0.2500000000000000    0.8782460000000000    0.5700490000000000 C
   0.9530550000000000    0.4859750000000000    0.8694360000000000 C
   0.7500000000000000    0.3782459999999990    0.9299510000000000 C
   0.4352850000000000    0.5087650000000000    0.9041640000000000 O
   0.2500000000000000    0.8433259999999990    0.5043110000000000 O
   0.7500000000000000    0.1566739999999990    0.4956890000000000 O
   0.9352849999999990    0.4912350000000000    0.0958359999999990 O
   0.9352849999999990    0.0087650000000000    0.5958359999999990 O
   0.5647150000000000    0.4912350000000000    0.0958359999999990 O
   0.7500000000000000    0.6585160000000000    0.7912840000000000 O
   0.2500000000000000    0.1585160000000000    0.7087160000000000 O
   0.7500000000000000    0.3433259999999990    0.9956889999999990 O
   0.4352850000000000    0.9912350000000000    0.4041639999999990 O
   0.0647150000000000    0.5087650000000000    0.9041640000000000 O
   0.7500000000000000    0.8414840000000000    0.2912840000000000 O
   0.0647150000000000    0.9912350000000000    0.4041639999999990 O
   0.5647150000000000    0.0087650000000000    0.5958359999999990 O
   0.2500000000000000    0.6566740000000000    0.0043110000000000 O
   0.2500000000000000    0.3414840000000000    0.2087159999999990 O
   0.5931759999999990    0.1061439999999990    0.7694879999999999 F
   0.5913200000000001    0.7867210000000000    0.9572940000000000 F
   0.2500000000000000    0.6652969999999990    0.5905810000000000 F
   0.9086800000000000    0.7867210000000000    0.9572940000000000 F
   0.4068239999999990    0.6061440000000000    0.7305119999999991 F
   0.0931760000000000    0.6061440000000000    0.7305119999999991 F
   0.2500000000000000    0.1261440000000000    0.9154580000000000 F
   0.7500000000000000    0.9459770000000000    0.7794110000000000 F
   0.9110450000000000    0.0072619999999990    0.9159919999999990 F
   0.4086800000000000    0.2867210000000000    0.5427060000000000 F
   0.0889549999999990    0.5072620000000000    0.5840080000000000 F
   0.2500000000000000    0.3738559999999990    0.4154580000000000 F
   0.7500000000000000    0.6261439999999990    0.5845420000000000 F
   0.2500000000000000    0.4459769999999990    0.7205889999999990 F
   0.9110450000000000    0.4927379999999991    0.4159920000000000 F
   0.2500000000000000    0.1333680000000000    0.5072110000000000 F
   0.0913200000000000    0.2132790000000000    0.0427060000000000 F
   0.5889550000000000    0.0072619999999990    0.9159919999999990 F
   0.4086800000000000    0.2132790000000000    0.0427060000000000 F
   0.4068239999999990    0.8938560000000000    0.2305120000000000 F
   0.0931760000000000    0.8938560000000000    0.2305120000000000 F
   0.9068240000000000    0.1061439999999990    0.7694879999999999 F
   0.7500000000000000    0.3347030000000000    0.4094190000000000 F
   0.0913200000000000    0.2867210000000000    0.5427060000000000 F
   0.2500000000000000    0.8347030000000000    0.0905810000000000 F
   0.2500000000000000    0.0540229999999990    0.2205889999999990 F
   0.5925440000000000    0.7801450000000000    0.6201670000000000 F
   0.9068240000000000    0.3938560000000000    0.2694880000000000 F
   0.9086800000000000    0.7132790000000000    0.4572940000000000 F
   0.2500000000000000    0.3666319999999990    0.0072109999999990 F
   0.9074559999999990    0.7198550000000000    0.1201670000000000 F
   0.7500000000000000    0.1652970000000000    0.9094190000000000 F
   0.9074559999999990    0.7801450000000000    0.6201670000000000 F
   0.4074560000000000    0.2801450000000000    0.8798330000000000 F
   0.0889549999999990    0.9927380000000000    0.0840080000000000 F
   0.0925440000000000    0.2198550000000000    0.3798330000000000 F
   0.5931759999999990    0.3938560000000000    0.2694880000000000 F
   0.5925440000000000    0.7198550000000000    0.1201670000000000 F
   0.7500000000000000    0.8738560000000000    0.0845419999999990 F
   0.7500000000000000    0.5540229999999990    0.2794109999999990 F
   0.4110450000000000    0.9927380000000000    0.0840080000000000 F
   0.7500000000000000    0.8666320000000000    0.4927890000000000 F
   0.5889550000000000    0.4927379999999991    0.4159920000000000 F
   0.4074560000000000    0.2198550000000000    0.3798330000000000 F
   0.7500000000000000    0.6333679999999990    0.9927889999999990 F
   0.4110450000000000    0.5072620000000000    0.5840080000000000 F
   0.0925440000000000    0.2801450000000000    0.8798330000000000 F
   0.5913200000000001    0.7132790000000000    0.4572940000000000 F
