Sb3 As2 S14 I3 F24
1.0
   8.4723050000000004    0.0000000000000000    0.0000000000000000
   0.7786790000000000    9.5143389999999997    0.0000000000000000
   1.1621100000000000    4.1693249999999997   12.7504200000000001
Sb As S I F
3 2 14 3 24
direct
   0.4682849999999991    0.2160250000000000    0.6645660000000000 Sb
   0.5317149999999990    0.7839750000000000    0.3354340000000000 Sb
   0.0000000000000000    0.0000000000000000    0.0000000000000000 Sb
   0.5192050000000000    0.2303660000000000    0.0028780000000000 As
   0.4807950000000000    0.7696339999999990    0.9971220000000000 As
   0.9101629999999991    0.9339379999999990    0.6932039999999990 S
   0.7420979999999990    0.6278480000000000    0.7093650000000000 S
   0.2579019999999990    0.3721520000000000    0.2906350000000000 S
   0.9640820000000000    0.4065570000000000    0.1353170000000000 S
   0.0359180000000000    0.5934429999999991    0.8646830000000000 S
   0.1584750000000000    0.1799780000000000    0.3960500000000000 S
   0.8840060000000000    0.4551860000000000    0.6961619999999999 S
   0.8718089999999999    0.1686969999999990    0.2443900000000000 S
   0.0898370000000000    0.0660620000000000    0.3067960000000000 S
   0.1159940000000000    0.5448140000000000    0.3038380000000000 S
   0.8415250000000000    0.8200219999999990    0.6039500000000001 S
   0.1281910000000000    0.8313030000000000    0.7556100000000001 S
   0.8985660000000000    0.5417360000000000    0.2104260000000000 S
   0.1014340000000000    0.4582640000000000    0.7895740000000000 S
   0.2836590000000000    0.7601509999999990    0.6251709999999990 I
   0.0000000000000000    0.5000000000000000    0.5000000000000000 I
   0.7163410000000000    0.2398489999999990    0.3748289999999990 I
   0.4423300000000001    0.2530460000000000    0.5164139999999990 F
   0.4382939999999990    0.4233949999999990    0.6469500000000000 F
   0.2436970000000000    0.1964169999999990    0.6915740000000000 F
   0.5020690000000000    0.0086530000000000    0.6827050000000000 F
   0.6533169999999990    0.3585470000000000    0.9225000000000001 F
   0.3079920000000000    0.7622089999999990    0.3715159999999990 F
   0.5617059999999990    0.5766049999999990    0.3530500000000000 F
   0.4979309999999990    0.9913470000000000    0.3172950000000000 F
   0.5011439999999990    0.8224129999999999    0.1891439999999990 F
   0.3466829999999990    0.6414529999999991    0.0775000000000000 F
   0.6507579999999999    0.6455700000000001    0.0223060000000000 F
   0.9604079999999990    0.1049500000000000    0.8565490000000000 F
   0.5577540000000000    0.2680880000000000    0.1197690000000000 F
   0.3492420000000000    0.3544300000000000    0.9776940000000000 F
   0.2249280000000000    0.0011660000000000    0.9650390000000000 F
   0.0395919999999990    0.8950500000000001    0.1434510000000000 F
   0.4422460000000000    0.7319120000000000    0.8802310000000000 F
   0.4988559999999990    0.1775870000000000    0.8108559999999990 F
   0.0047200000000000    0.1839960000000000    0.0303780000000000 F
   0.5576700000000000    0.7469540000000000    0.4835859999999990 F
   0.6920080000000000    0.2377910000000000    0.6284839999999990 F
   0.7563029999999999    0.8035829999999990    0.3084260000000000 F
   0.7750720000000000    0.9988340000000000    0.0349610000000000 F
   0.9952800000000001    0.8160040000000000    0.9696220000000000 F
