Na12 As4 H72 Se16 O36
1.0
  12.2243630000000003    0.0000000000000000    0.0000000000000000
   0.0000000000000000   12.2243630000000003    0.0000000000000000
   0.0000000000000000    0.0000000000000000   12.2243630000000003
Na As H Se O
12 4 72 16 36
direct
   0.3998069999999990    0.1001929999999990    0.8998069999999990 Na
   0.1001929999999990    0.8998069999999990    0.3998069999999990 Na
   0.8998069999999990    0.3998069999999990    0.1001929999999990 Na
   0.6001930000000000    0.6001930000000000    0.6001930000000000 Na
   0.5506120000000000    0.9493880000000000    0.0506120000000000 Na
   0.9493880000000000    0.0506120000000000    0.5506120000000000 Na
   0.0506120000000000    0.5506120000000000    0.9493880000000000 Na
   0.2917740000000000    0.2917740000000000    0.2917740000000000 Na
   0.4493879999999990    0.4493879999999990    0.4493879999999990 Na
   0.7917740000000000    0.2082260000000000    0.7082260000000000 Na
   0.2082260000000000    0.7082260000000000    0.7917740000000000 Na
   0.7082260000000000    0.7917740000000000    0.2082260000000000 Na
   0.4607230000000000    0.9607230000000000    0.5392770000000000 As
   0.5392770000000000    0.4607230000000000    0.9607230000000000 As
   0.9607230000000000    0.5392770000000000    0.4607230000000000 As
   0.0392770000000000    0.0392770000000000    0.0392770000000000 As
   0.4357840000000000    0.6932410000000000    0.8776929999999999 H
   0.9357839999999999    0.8067590000000000    0.1223070000000000 H
   0.5642159999999991    0.1932410000000000    0.6223069999999991 H
   0.8067590000000000    0.1223070000000000    0.9357839999999999 H
   0.6223069999999991    0.5642159999999991    0.1932410000000000 H
   0.1223070000000000    0.9357839999999999    0.8067590000000000 H
   0.6932410000000000    0.8776929999999999    0.4357840000000000 H
   0.8776929999999999    0.4357840000000000    0.6932410000000000 H
   0.1932410000000000    0.6223069999999991    0.5642159999999991 H
   0.3067590000000000    0.3776930000000000    0.0642160000000000 H
   0.3776930000000000    0.0642160000000000    0.3067590000000000 H
   0.0642160000000000    0.3067590000000000    0.3776930000000000 H
   0.4487410000000000    0.7732749999999990    0.7775090000000000 H
   0.9487409999999999    0.7267250000000000    0.2224910000000000 H
   0.5512589999999991    0.2732750000000000    0.7224910000000000 H
   0.7267250000000000    0.2224910000000000    0.9487409999999999 H
   0.7224910000000000    0.5512589999999991    0.2732750000000000 H
   0.2224910000000000    0.9487409999999999    0.7267250000000000 H
   0.7732749999999990    0.7775090000000000    0.4487410000000000 H
   0.7775090000000000    0.4487410000000000    0.7732749999999990 H
   0.2732750000000000    0.7224910000000000    0.5512589999999991 H
   0.2267249999999990    0.2775090000000000    0.0512590000000000 H
   0.2775090000000000    0.0512590000000000    0.2267249999999990 H
   0.0512590000000000    0.2267249999999990    0.2775090000000000 H
   0.3287790000000000    0.2402610000000000    0.5359680000000000 H
   0.8287789999999990    0.2597390000000000    0.4640320000000000 H
   0.6712210000000000    0.7402609999999999    0.9640320000000000 H
   0.2597390000000000    0.4640320000000000    0.8287789999999990 H
   0.9640320000000000    0.6712210000000000    0.7402609999999999 H
   0.4640320000000000    0.8287789999999990    0.2597390000000000 H
   0.2402610000000000    0.5359680000000000    0.3287790000000000 H
   0.5359680000000000    0.3287790000000000    0.2402610000000000 H
   0.7402609999999999    0.9640320000000000    0.6712210000000000 H
   0.7597389999999991    0.0359680000000000    0.1712209999999990 H
   0.1945619999999990    0.0826249999999990    0.5167560000000000 H
   0.0359680000000000    0.1712209999999990    0.7597389999999991 H
   0.2483929999999990    0.3394260000000000    0.5169990000000000 H
   0.7483930000000000    0.1605740000000000    0.4830009999999990 H
   0.7516069999999990    0.8394260000000000    0.9830009999999991 H
   0.1605740000000000    0.4830009999999990    0.7483930000000000 H
   0.9830009999999991    0.7516069999999990    0.8394260000000000 H
   0.4830009999999990    0.7483930000000000    0.1605740000000000 H
   0.3394260000000000    0.5169990000000000    0.2483929999999990 H
   0.5169990000000000    0.2483929999999990    0.3394260000000000 H
   0.8394260000000000    0.9830009999999991    0.7516069999999990 H
   0.6605740000000000    0.0169990000000000    0.2516069999999990 H
   0.0169990000000000    0.2516069999999990    0.6605740000000000 H
   0.2516069999999990    0.6605740000000000    0.0169990000000000 H
   0.5781000000000001    0.6277720000000000    0.3580160000000000 H
   0.0781000000000000    0.8722280000000000    0.6419840000000000 H
   0.4219000000000000    0.1277720000000000    0.1419840000000000 H
   0.8722280000000000    0.6419840000000000    0.0781000000000000 H
   0.1419840000000000    0.4219000000000000    0.1277720000000000 H
   0.6419840000000000    0.0781000000000000    0.8722280000000000 H
   0.6277720000000000    0.3580160000000000    0.5781000000000001 H
   0.3580160000000000    0.5781000000000001    0.6277720000000000 H
   0.1277720000000000    0.1419840000000000    0.4219000000000000 H
   0.3722280000000000    0.8580160000000000    0.9219000000000001 H
   0.8580160000000000    0.9219000000000001    0.3722280000000000 H
   0.9219000000000001    0.3722280000000000    0.8580160000000000 H
   0.4832439999999991    0.6945620000000000    0.4173750000000000 H
   0.9832440000000000    0.8054380000000000    0.5826249999999999 H
   0.5167560000000000    0.1945619999999990    0.0826249999999990 H
   0.8054380000000000    0.5826249999999999    0.9832440000000000 H
   0.0826249999999990    0.5167560000000000    0.1945619999999990 H
   0.5826249999999999    0.9832440000000000    0.8054380000000000 H
   0.6945620000000000    0.4173750000000000    0.4832439999999991 H
   0.4173750000000000    0.4832439999999991    0.6945620000000000 H
   0.0167560000000000    0.3054380000000000    0.9173749999999991 H
   0.9173749999999991    0.0167560000000000    0.3054380000000000 H
   0.3054380000000000    0.9173749999999991    0.0167560000000000 H
   0.1712209999999990    0.7597389999999991    0.0359680000000000 H
   0.6532000000000000    0.5748179999999991    0.8546300000000001 Se
   0.5748179999999991    0.8546300000000001    0.6532000000000000 Se
   0.8468000000000000    0.4251820000000000    0.3546300000000001 Se
   0.4251820000000000    0.3546300000000001    0.8468000000000000 Se
   0.3468000000000000    0.0748180000000000    0.6453700000000000 Se
   0.1532000000000000    0.9251819999999999    0.1453700000000000 Se
   0.9251819999999999    0.1453700000000000    0.1532000000000000 Se
   0.1453700000000000    0.1532000000000000    0.9251819999999999 Se
   0.0722479999999990    0.4277519999999990    0.5722480000000000 Se
   0.4277519999999990    0.5722480000000000    0.0722479999999990 Se
   0.5722480000000000    0.0722479999999990    0.4277519999999990 Se
   0.9277519999999990    0.9277519999999990    0.9277519999999990 Se
   0.6453700000000000    0.3468000000000000    0.0748180000000000 Se
   0.8546300000000001    0.6532000000000000    0.5748179999999991 Se
   0.3546300000000001    0.8468000000000000    0.4251820000000000 Se
   0.0748180000000000    0.6453700000000000    0.3468000000000000 Se
   0.3959649999999990    0.7474250000000000    0.8337180000000000 O
   0.8959650000000000    0.7525750000000000    0.1662819999999990 O
   0.6040350000000000    0.2474249999999990    0.6662819999999990 O
   0.7525750000000000    0.1662819999999990    0.8959650000000000 O
   0.6662819999999990    0.6040350000000000    0.2474249999999990 O
   0.1662819999999990    0.8959650000000000    0.7525750000000000 O
   0.7474250000000000    0.8337180000000000    0.3959649999999990 O
   0.8337180000000000    0.3959649999999990    0.7474250000000000 O
   0.2474249999999990    0.6662819999999990    0.6040350000000000 O
   0.2525750000000000    0.3337179999999990    0.1040349999999990 O
   0.3337179999999990    0.1040349999999990    0.2525750000000000 O
   0.1040349999999990    0.2525750000000000    0.3337179999999990 O
   0.3165100000000000    0.3057690000000000    0.4900400000000000 O
   0.8165100000000001    0.1942310000000000    0.5099600000000001 O
   0.6834900000000000    0.8057690000000000    0.0099600000000000 O
   0.1942310000000000    0.5099600000000001    0.8165100000000001 O
   0.0099600000000000    0.6834900000000000    0.8057690000000000 O
   0.5099600000000001    0.8165100000000001    0.1942310000000000 O
   0.3057690000000000    0.4900400000000000    0.3165100000000000 O
   0.4900400000000000    0.3165100000000000    0.3057690000000000 O
   0.8057690000000000    0.0099600000000000    0.6834900000000000 O
   0.6942309999999990    0.9900400000000000    0.1834900000000000 O
   0.9900400000000000    0.1834900000000000    0.6942309999999990 O
   0.1834900000000000    0.6942309999999990    0.9900400000000000 O
   0.5292150000000000    0.6284660000000000    0.4230040000000000 O
   0.0292149999999990    0.8715339999999990    0.5769960000000000 O
   0.4707849999999990    0.1284660000000000    0.0769960000000000 O
   0.8715339999999990    0.5769960000000000    0.0292149999999990 O
   0.0769960000000000    0.4707849999999990    0.1284660000000000 O
   0.5769960000000000    0.0292149999999990    0.8715339999999990 O
   0.6284660000000000    0.4230040000000000    0.5292150000000000 O
   0.4230040000000000    0.5292150000000000    0.6284660000000000 O
   0.1284660000000000    0.0769960000000000    0.4707849999999990 O
   0.3715340000000000    0.9230039999999990    0.9707850000000000 O
   0.9230039999999990    0.9707850000000000    0.3715340000000000 O
   0.9707850000000000    0.3715340000000000    0.9230039999999990 O
