Ni2 As4 S12 N12 F36
1.0
   9.1703960000000002    0.0000000000000000    0.0000000000000000
   0.0000000000000000    9.5628849999999996    0.0000000000000000
   0.0000000000000000    9.5056530000000006   13.2819990000000008
Ni As S N F
2 4 12 12 36
direct
   0.0000000000000000    0.0000000000000000    0.0000000000000000 Ni
   0.5000000000000000    0.0000000000000000    0.5000000000000000 Ni
   0.4491679999999990    0.7430800000000001    0.2551569999999990 As
   0.5508320000000000    0.2569200000000000    0.7448429999999990 As
   0.9491680000000000    0.2569200000000000    0.2448429999999990 As
   0.0508319999999990    0.7430800000000001    0.7551570000000000 As
   0.5029060000000000    0.1736120000000000    0.2442129999999990 S
   0.1905840000000000    0.2457440000000000    0.4579390000000000 S
   0.4970940000000000    0.8263880000000000    0.7557870000000000 S
   0.6905840000000000    0.7542559999999990    0.0420610000000000 S
   0.0029059999999990    0.8263880000000000    0.2557870000000000 S
   0.8094159999999990    0.7542559999999990    0.5420610000000000 S
   0.9970939999999990    0.1736120000000000    0.7442130000000000 S
   0.7007610000000000    0.3451249999999990    0.4604780000000000 S
   0.2992390000000000    0.6548750000000000    0.5395219999999999 S
   0.3094159999999990    0.2457440000000000    0.9579390000000000 S
   0.7992389999999990    0.3451249999999990    0.9604779999999991 S
   0.2007610000000000    0.6548750000000000    0.0395220000000000 S
   0.1092310000000000    0.7817600000000000    0.0340930000000000 N
   0.1952660000000000    0.1365000000000000    0.9647180000000000 N
   0.9888520000000000    0.0805980000000000    0.8516680000000000 N
   0.5111479999999990    0.0805980000000000    0.3516680000000000 N
   0.3907690000000000    0.7817600000000000    0.5340929999999990 N
   0.6952659999999991    0.8635000000000000    0.5352819999999990 N
   0.6092310000000000    0.2182400000000000    0.4659069999999990 N
   0.8047339999999999    0.8635000000000000    0.0352820000000000 N
   0.4888519999999991    0.9194019999999991    0.6483320000000000 N
   0.8907689999999990    0.2182400000000000    0.9659070000000000 N
   0.3047340000000000    0.1365000000000000    0.4647179999999990 N
   0.0111480000000000    0.9194019999999991    0.1483320000000000 N
   0.7958090000000000    0.3838720000000000    0.2300350000000000 F
   0.5682579999999990    0.5963000000000001    0.2557660000000000 F
   0.3301280000000000    0.8909410000000000    0.2545440000000000 F
   0.5677289999999990    0.1388950000000000    0.8778760000000000 F
   0.4322709999999990    0.8611050000000000    0.1221240000000000 F
   0.0682580000000000    0.4037000000000000    0.2442339999999990 F
   0.1698720000000000    0.8909410000000000    0.7545440000000000 F
   0.2076569999999990    0.3057200000000000    0.5357760000000000 F
   0.7041910000000000    0.3838720000000000    0.7300350000000000 F
   0.8301280000000000    0.1090589999999990    0.2454559999999990 F
   0.4317419999999990    0.4037000000000000    0.7442340000000000 F
   0.6458149999999990    0.2674550000000000    0.0297260000000000 F
   0.4493430000000000    0.3793829999999990    0.1825700000000000 F
   0.0366849999999990    0.6226240000000000    0.8886219999999990 F
   0.6003029999999990    0.8706309999999990    0.2408700000000000 F
   0.9317420000000000    0.5963000000000001    0.7557659999999990 F
   0.7076570000000000    0.6942800000000000    0.9642240000000000 F
   0.3541849999999990    0.7325450000000000    0.9702740000000000 F
   0.0677290000000000    0.8611050000000000    0.6221240000000000 F
   0.4633150000000000    0.6226240000000000    0.3886219999999990 F
   0.0506570000000000    0.3793829999999990    0.6825700000000000 F
   0.8541850000000000    0.2674550000000000    0.5297260000000000 F
   0.2958090000000000    0.6161280000000000    0.2699650000000000 F
   0.5506570000000000    0.6206170000000000    0.8174300000000001 F
   0.9633149999999990    0.3773760000000000    0.1113779999999990 F
   0.7923430000000000    0.6942800000000000    0.4642239999999990 F
   0.2041909999999990    0.6161280000000000    0.7699650000000000 F
   0.1003029999999990    0.1293689999999990    0.2591300000000000 F
   0.1458150000000000    0.7325450000000000    0.4702739999999990 F
   0.3996969999999990    0.1293689999999990    0.7591300000000001 F
   0.8996970000000000    0.8706309999999990    0.7408700000000000 F
   0.2923429999999990    0.3057200000000000    0.0357759999999990 F
   0.5366850000000000    0.3773760000000000    0.6113780000000000 F
   0.9322710000000000    0.1388950000000000    0.3778760000000000 F
   0.6698720000000000    0.1090589999999990    0.7454560000000000 F
   0.9493429999999990    0.6206170000000000    0.3174300000000000 F
