Na12 Sb4 Te12
1.0
   9.6783730000000006    0.0000000000000000    0.0000000000000000
   0.0000000000000000    9.6783730000000006    0.0000000000000000
   0.0000000000000000    0.0000000000000000    9.6783730000000006
Na Sb Te
12 4 12
direct
   0.5899719999999991    0.9100279999999999    0.0899720000000000 Na
   0.1826779999999990    0.1826779999999990    0.1826779999999990 Na
   0.3173220000000000    0.8173220000000000    0.6826780000000000 Na
   0.6826780000000000    0.3173220000000000    0.8173220000000000 Na
   0.9100279999999999    0.0899720000000000    0.5899719999999991 Na
   0.0899720000000000    0.5899719999999991    0.9100279999999999 Na
   0.4100280000000000    0.4100280000000000    0.4100280000000000 Na
   0.3274479999999990    0.1725519999999990    0.8274480000000000 Na
   0.1725519999999990    0.8274480000000000    0.3274479999999990 Na
   0.8274480000000000    0.3274479999999990    0.1725519999999990 Na
   0.6725519999999990    0.6725519999999990    0.6725519999999990 Na
   0.8173220000000000    0.6826780000000000    0.3173220000000000 Na
   0.0387260000000000    0.4612739999999990    0.5387259999999990 Sb
   0.4612739999999990    0.5387259999999990    0.0387260000000000 Sb
   0.9612740000000000    0.9612740000000000    0.9612740000000000 Sb
   0.5387259999999990    0.0387260000000000    0.4612739999999990 Sb
   0.2595890000000000    0.1194559999999990    0.5026210000000000 Te
   0.7404109999999990    0.6194560000000000    0.9973789999999991 Te
   0.3805440000000000    0.4973789999999990    0.7595890000000000 Te
   0.9973789999999991    0.7404109999999990    0.6194560000000000 Te
   0.4973789999999990    0.7595890000000000    0.3805440000000000 Te
   0.1194559999999990    0.5026210000000000    0.2595890000000000 Te
   0.5026210000000000    0.2595890000000000    0.1194559999999990 Te
   0.6194560000000000    0.9973789999999991    0.7404109999999990 Te
   0.8805440000000000    0.0026210000000000    0.2404109999999990 Te
   0.0026210000000000    0.2404109999999990    0.8805440000000000 Te
   0.2404109999999990    0.8805440000000000    0.0026210000000000 Te
   0.7595890000000000    0.3805440000000000    0.4973789999999990 Te
