Na12 Sb4 H120 S12 N40
1.0
   6.1609949999999998    0.0000000000000000    0.0000000000000000
   0.0000000000000000   10.0004720000000002    0.0000000000000000
   0.0000000000000000    0.7986670000000000   34.0394050000000021
Na Sb H S N
12 4 120 12 40
direct
   0.4989619999999990    0.0604450000000000    0.4121209999999990 Na
   0.0010379999999990    0.0604450000000000    0.9121210000000000 Na
   0.5501600000000001    0.4097280000000000    0.3226670000000000 Na
   0.9498400000000001    0.4097280000000000    0.8226669999999990 Na
   0.4799179999999990    0.4546380000000000    0.4468810000000000 Na
   0.0200820000000000    0.4546380000000000    0.9468810000000000 Na
   0.9799180000000000    0.5453620000000000    0.0531190000000000 Na
   0.5200819999999990    0.5453620000000000    0.5531190000000000 Na
   0.0501600000000000    0.5902720000000000    0.1773330000000000 Na
   0.4498400000000000    0.5902720000000000    0.6773330000000000 Na
   0.9989619999999991    0.9395549999999990    0.0878790000000000 Na
   0.5010380000000000    0.9395549999999990    0.5878789999999990 Na
   0.9653000000000000    0.3125870000000000    0.3980260000000000 Sb
   0.5347000000000001    0.3125870000000000    0.8980260000000000 Sb
   0.4653000000000000    0.6874129999999991    0.1019740000000000 Sb
   0.0347000000000000    0.6874129999999991    0.6019740000000000 Sb
   0.7382829999999990    0.0405140000000000    0.0128610000000000 H
   0.1252130000000000    0.0177370000000000    0.3572670000000000 H
   0.7892460000000000    0.0318170000000000    0.2394609999999990 H
   0.7617170000000000    0.0405140000000000    0.5128610000000000 H
   0.8355650000000000    0.0595459999999990    0.1616800000000000 H
   0.3747870000000000    0.0177370000000000    0.8572670000000000 H
   0.3276989999999990    0.0668980000000000    0.1030760000000000 H
   0.7107540000000000    0.0318170000000000    0.7394609999999990 H
   0.6644350000000000    0.0595459999999990    0.6616800000000000 H
   0.2946749999999990    0.0873950000000000    0.1839510000000000 H
   0.1136210000000000    0.0910860000000000    0.4674080000000000 H
   0.3623969999999990    0.1225580000000000    0.0581260000000000 H
   0.1723009999999990    0.0668980000000000    0.6030759999999999 H
   0.6904020000000000    0.1340700000000000    0.1277140000000000 H
   0.3565979999999990    0.1057869999999990    0.4867430000000000 H
   0.2053249999999990    0.0873950000000000    0.6839510000000000 H
   0.3863790000000000    0.0910860000000000    0.9674079999999990 H
   0.1376030000000000    0.1225580000000000    0.5581260000000000 H
   0.6193700000000001    0.1528930000000000    0.2290319999999990 H
   0.8095979999999990    0.1340700000000000    0.6277140000000000 H
   0.1434020000000000    0.1057869999999990    0.9867429999999990 H
   0.7916529999999991    0.1654479999999990    0.2658790000000000 H
   0.1112239999999990    0.1779059999999990    0.2060700000000000 H
   0.3968649999999990    0.1702430000000000    0.3091460000000000 H
   0.8806300000000000    0.1528930000000000    0.7290320000000000 H
   0.7083469999999999    0.1654479999999990    0.7658790000000000 H
   0.2726490000000000    0.2245440000000000    0.0916500000000000 H
   0.3887759999999990    0.1779059999999990    0.7060700000000001 H
   0.2924080000000000    0.2167130000000000    0.2663720000000000 H
   0.1031349999999990    0.1702430000000000    0.8091459999999990 H
   0.1467530000000000    0.2272400000000000    0.3072320000000000 H
   0.2944960000000000    0.2507720000000000    0.1773100000000000 H
   0.2273510000000000    0.2245440000000000    0.5916500000000000 H
   0.8581010000000000    0.2534760000000000    0.0725030000000000 H
   0.2075920000000000    0.2167130000000000    0.7663719999999991 H
   0.3532470000000000    0.2272400000000000    0.8072319999999999 H
   0.2055040000000000    0.2507720000000000    0.6773100000000001 H
   0.6418990000000000    0.2534760000000000    0.5725030000000000 H
   0.7350590000000000    0.3076470000000000    0.0324160000000000 H
   0.2015440000000000    0.3268379999999990    0.0238610000000000 H
   0.7839290000000000    0.3149360000000000    0.1881880000000000 H
   0.7649410000000000    0.3076470000000000    0.5324160000000000 H
   0.6453110000000000    0.3545230000000000    0.0757920000000000 H
   0.2984560000000000    0.3268379999999990    0.5238610000000000 H
   0.8995750000000000    0.3650830000000000    0.1469240000000000 H
   0.7160710000000000    0.3149360000000000    0.6881880000000000 H
   0.1116590000000000    0.3441470000000000    0.4897660000000000 H
   0.8546889999999990    0.3545230000000000    0.5757920000000000 H
   0.6004250000000000    0.3650830000000000    0.6469239999999991 H
   0.6514869999999990    0.4145459999999990    0.1568169999999990 H
   0.3883410000000000    0.3441470000000000    0.9897659999999990 H
   0.8518580000000000    0.4226540000000000    0.2489080000000000 H
   0.3315110000000000    0.4681079999999990    0.0186660000000000 H
   0.3428330000000000    0.4292669999999990    0.2323339999999990 H
   0.8485130000000000    0.4145459999999990    0.6568170000000000 H
   0.9748230000000000    0.4504019999999990    0.2905030000000000 H
   0.6481420000000000    0.4226540000000000    0.7489080000000000 H
   0.1684890000000000    0.4681079999999990    0.5186660000000000 H
   0.1571670000000000    0.4292669999999990    0.7323339999999990 H
   0.5251770000000000    0.4504019999999990    0.7905030000000000 H
   0.4748230000000000    0.5495979999999990    0.2094970000000000 H
   0.8428329999999991    0.5707329999999990    0.2676660000000000 H
   0.8315110000000000    0.5318920000000000    0.4813340000000000 H
   0.3518580000000000    0.5773460000000000    0.2510920000000000 H
   0.0251769999999990    0.5495979999999990    0.7094969999999990 H
   0.1514869999999990    0.5854539999999990    0.3431829999999990 H
   0.6571669999999999    0.5707329999999990    0.7676660000000000 H
   0.6684890000000000    0.5318920000000000    0.9813339999999990 H
   0.1481420000000000    0.5773460000000000    0.7510920000000000 H
   0.6116590000000000    0.6558530000000000    0.0102340000000000 H
   0.3485129999999990    0.5854539999999990    0.8431830000000000 H
   0.3995749999999990    0.6349170000000000    0.3530760000000000 H
   0.1453110000000000    0.6454770000000000    0.4242080000000000 H
   0.8883409999999990    0.6558530000000000    0.5102340000000000 H
   0.2839290000000000    0.6850640000000000    0.3118120000000000 H
   0.1004250000000000    0.6349170000000000    0.8530759999999999 H
   0.7015439999999999    0.6731619999999990    0.4761390000000000 H
   0.3546890000000000    0.6454770000000000    0.9242079999999990 H
   0.2350590000000000    0.6923530000000000    0.4675840000000000 H
   0.2160709999999990    0.6850640000000000    0.8118120000000000 H
   0.7984559999999991    0.6731619999999990    0.9761390000000000 H
   0.2649410000000000    0.6923530000000000    0.9675840000000000 H
   0.3581010000000000    0.7465240000000000    0.4274969999999990 H
   0.7944960000000000    0.7492280000000000    0.3226900000000000 H
   0.6467530000000000    0.7727600000000001    0.1927680000000000 H
   0.7924080000000000    0.7832870000000000    0.2336280000000000 H
   0.1418990000000000    0.7465240000000000    0.9274969999999990 H
   0.7726489999999990    0.7754559999999990    0.4083500000000000 H
   0.7055040000000000    0.7492280000000000    0.8226900000000000 H
   0.8532470000000000    0.7727600000000001    0.6927679999999991 H
   0.8968649999999990    0.8297570000000000    0.1908540000000000 H
   0.7075920000000000    0.7832870000000000    0.7336279999999999 H
   0.6112240000000000    0.8220940000000000    0.2939300000000000 H
   0.7273510000000000    0.7754559999999990    0.9083500000000001 H
   0.2916530000000000    0.8345520000000000    0.2341210000000000 H
   0.1193700000000000    0.8471069999999991    0.2709680000000000 H
   0.6031350000000000    0.8297570000000000    0.6908540000000000 H
   0.8887760000000000    0.8220940000000000    0.7939300000000000 H
   0.2083470000000000    0.8345520000000000    0.7341209999999990 H
   0.8565980000000000    0.8942129999999990    0.0132570000000000 H
   0.1904020000000000    0.8659300000000001    0.3722860000000000 H
   0.3806300000000000    0.8471069999999991    0.7709680000000000 H
   0.8623970000000000    0.8774419999999991    0.4418740000000000 H
   0.6136210000000000    0.9089140000000000    0.0325919999999990 H
   0.7946749999999990    0.9126050000000000    0.3160489999999990 H
   0.6434019999999990    0.8942129999999990    0.5132570000000000 H
   0.3095980000000000    0.8659300000000001    0.8722860000000000 H
   0.8276990000000000    0.9331020000000000    0.3969240000000000 H
   0.6376029999999990    0.8774419999999991    0.9418740000000000 H
   0.8863789999999990    0.9089140000000000    0.5325920000000000 H
   0.7053250000000000    0.9126050000000000    0.8160489999999990 H
   0.3355650000000000    0.9404540000000000    0.3383200000000000 H
   0.2892460000000000    0.9681829999999991    0.2605389999999990 H
   0.6723009999999990    0.9331020000000000    0.8969239999999991 H
   0.6252130000000000    0.9822630000000000    0.1427330000000000 H
   0.1644350000000000    0.9404540000000000    0.8383200000000001 H
   0.2382830000000000    0.9594860000000000    0.4871390000000000 H
   0.2107540000000000    0.9681829999999991    0.7605390000000000 H
   0.8747870000000000    0.9822630000000000    0.6427330000000000 H
   0.2617170000000000    0.9594860000000000    0.9871390000000000 H
   0.7915650000000000    0.1708589999999990    0.3494549999999990 S
   0.7084349999999990    0.1708589999999990    0.8494550000000000 S
   0.7731119999999990    0.2405560000000000    0.4577850000000000 S
   0.7268880000000000    0.2405560000000000    0.9577850000000000 S
   0.2951870000000000    0.4695620000000000    0.1141740000000000 S
   0.2048130000000000    0.4695620000000000    0.6141740000000000 S
   0.7951870000000000    0.5304380000000000    0.3858260000000000 S
   0.7048130000000000    0.5304380000000000    0.8858260000000000 S
   0.2731119999999990    0.7594440000000000    0.0422149999999990 S
   0.2268879999999990    0.7594440000000000    0.5422150000000000 S
   0.2915649999999990    0.8291410000000000    0.1505449999999990 S
   0.2084349999999990    0.8291410000000000    0.6505449999999990 S
   0.7551740000000000    0.0434950000000000    0.1358919999999990 N
   0.2622530000000000    0.0446100000000000    0.4702000000000000 N
   0.7448260000000000    0.0434950000000000    0.6358920000000000 N
   0.2377469999999990    0.0446100000000000    0.9702000000000001 N
   0.2607140000000000    0.1285150000000000    0.0817150000000000 N
   0.7768269999999990    0.1338389999999990    0.2374780000000000 N
   0.2392860000000000    0.1285150000000000    0.5817150000000000 N
   0.2723120000000000    0.1759349999999990    0.1980819999999990 N
   0.7231730000000000    0.1338389999999990    0.7374780000000000 N
   0.2276880000000000    0.1759349999999990    0.6980820000000000 N
   0.2994900000000000    0.2403539999999990    0.2955170000000000 N
   0.2005100000000000    0.2403539999999990    0.7955169999999990 N
   0.7834449999999999    0.3352569999999990    0.0599349999999990 N
   0.7165549999999991    0.3352569999999990    0.5599350000000000 N
   0.2612550000000000    0.3927319999999990    0.0031279999999990 N
   0.8010160000000000    0.3955110000000000    0.1692690000000000 N
   0.2387449999999990    0.3927319999999990    0.5031280000000000 N
   0.6989839999999991    0.3955110000000000    0.6692690000000000 N
   0.8363870000000000    0.4709470000000000    0.2749080000000000 N
   0.6636130000000000    0.4709470000000000    0.7749079999999990 N
   0.3363870000000000    0.5290530000000000    0.2250920000000000 N
   0.1636129999999990    0.5290530000000000    0.7250920000000000 N
   0.3010160000000000    0.6044889999999991    0.3307310000000000 N
   0.7612550000000000    0.6072679999999990    0.4968720000000000 N
   0.1989840000000000    0.6044889999999991    0.8307310000000000 N
   0.7387450000000000    0.6072679999999990    0.9968720000000000 N
   0.2834450000000000    0.6647430000000000    0.4400650000000000 N
   0.2165550000000000    0.6647430000000000    0.9400649999999990 N
   0.7994900000000000    0.7596459999999990    0.2044830000000000 N
   0.7005100000000001    0.7596459999999990    0.7044830000000000 N
   0.7723120000000000    0.8240649999999990    0.3019179999999990 N
   0.2768270000000000    0.8661610000000000    0.2625220000000000 N
   0.7276880000000000    0.8240649999999990    0.8019179999999990 N
   0.7607140000000000    0.8714850000000000    0.4182849999999990 N
   0.2231729999999990    0.8661610000000000    0.7625219999999990 N
   0.7392860000000000    0.8714850000000000    0.9182849999999990 N
   0.7622530000000000    0.9553900000000001    0.0298000000000000 N
   0.2551740000000000    0.9565049999999991    0.3641080000000000 N
   0.7377469999999990    0.9553900000000001    0.5298000000000000 N
   0.2448260000000000    0.9565049999999991    0.8641080000000000 N
