Tl24 As8 S24
1.0
   5.7507093400000002   -0.0000000000000000    0.0000000000000000
   0.0000000000000000   12.4842836599999991    0.0000000000000000
   0.0000000000000000    0.0000000000000000   21.9385520400000011
Tl As S
24 8 24
direct
   0.9144222600000000    0.7795866400000000    0.1836265900000000 Tl
   0.4144222600000000    0.7204133600000000    0.8163734100000000 Tl
   0.0813097100000000    0.8333053800000000    0.9756426100000000 Tl
   0.5813097100000000    0.6666946200000000    0.0243573900000000 Tl
   0.9186902900000000    0.3333053800000000    0.5243573900000000 Tl
   0.5855777400000000    0.2795866400000000    0.1836265900000000 Tl
   0.0813097100000000    0.6666946200000000    0.4756426100000000 Tl
   0.5855777400000000    0.2204133600000000    0.6836265900000000 Tl
   0.4186902900000000    0.3333053800000000    0.9756426100000000 Tl
   0.4144222600000000    0.7795866400000000    0.3163734100000000 Tl
   0.5813097100000000    0.8333053800000000    0.5243573900000000 Tl
   0.9144222600000000    0.7204133600000000    0.6836265900000000 Tl
   0.0855777400000000    0.2204133600000000    0.8163734100000000 Tl
   0.9559489000000000    0.9313221600000000    0.8084082100000001 Tl
   0.4559489000000000    0.9313221600000000    0.6915917900000000 Tl
   0.0855777400000000    0.2795866400000000    0.3163734100000000 Tl
   0.0440510999999990    0.4313221600000000    0.6915917900000000 Tl
   0.0440510999999990    0.0686778400000000    0.1915917900000000 Tl
   0.9559489000000000    0.5686778400000000    0.3084082100000000 Tl
   0.9186902900000000    0.1666946200000000    0.0243573900000000 Tl
   0.4186902900000000    0.1666946200000000    0.4756426100000000 Tl
   0.5440511000000000    0.0686778400000000    0.3084082100000000 Tl
   0.5440511000000000    0.4313221600000000    0.8084082100000001 Tl
   0.4559489000000000    0.5686778400000000    0.1915917900000000 Tl
   0.4564653900000000    0.5493552200000000    0.5860509100000000 As
   0.0435346100000000    0.0493552200000000    0.5860509100000000 As
   0.5435346100000000    0.0493552200000000    0.9139490900000000 As
   0.0435346100000000    0.4506447800000000    0.0860509100000000 As
   0.5435346100000000    0.4506447800000000    0.4139490900000000 As
   0.9564653900000000    0.9506447800000000    0.4139490900000000 As
   0.9564653900000000    0.5493552200000000    0.9139490900000000 As
   0.4564653900000000    0.9506447800000000    0.0860509100000000 As
   0.6133418400000000    0.3953302500000000    0.3177230400000000 S
   0.6133418400000000    0.1046697500000000    0.8177230400000001 S
   0.1133418400000000    0.3953302500000000    0.1822769600000000 S
   0.3498223700000000    0.5536802600000000    0.9155759500000000 S
   0.8866581600000000    0.8953302500000000    0.3177230400000000 S
   0.1179388700000000    0.6271603100000001    0.0910434700000000 S
   0.8820611300000000    0.1271603100000000    0.4089565300000000 S
   0.1133418400000000    0.1046697500000000    0.6822769600000000 S
   0.6179388700000000    0.8728396900000001    0.9089565300000000 S
   0.3820611300000000    0.1271603100000000    0.0910434700000000 S
   0.6501776300000001    0.0536802600000000    0.5844240500000000 S
   0.6179388700000000    0.6271603100000001    0.4089565300000000 S
   0.1501776300000000    0.4463197400000000    0.4155759500000000 S
   0.1501776300000000    0.0536802600000000    0.9155759500000000 S
   0.6501776300000001    0.4463197400000000    0.0844240500000000 S
   0.8820611300000000    0.3728396900000000    0.9089565300000000 S
   0.3820611300000000    0.3728396900000000    0.5910434700000000 S
   0.3866581600000000    0.6046697500000000    0.6822769600000000 S
   0.8498223700000000    0.5536802600000000    0.5844240500000000 S
   0.3866581600000000    0.8953302500000000    0.1822769600000000 S
   0.1179388700000000    0.8728396900000001    0.5910434700000000 S
   0.3498223700000000    0.9463197400000000    0.4155759500000000 S
   0.8498223700000000    0.9463197400000000    0.0844240500000000 S
   0.8866581600000000    0.6046697500000000    0.8177230400000001 S
