Li1 Ge3 Sb1 Te5
1.0
  17.7211320000000008   -2.1415030000000002    0.0000000000000000
  17.7211320000000008    2.1415030000000002    0.0000000000000000
  17.4623430000000006    0.0000000000000000    3.7001539999999999
Li Ge Sb Te
1 3 1 5
direct
   0.1047510000000000    0.1047510000000000    0.1047510000000000 Li
   0.2984250000000000    0.2984250000000000    0.2984250000000000 Ge
   0.8987970000000000    0.8987970000000000    0.8987970000000000 Ge
   0.4981660000000000    0.4981660000000000    0.4981660000000000 Ge
   0.7016610000000000    0.7016610000000000    0.7016610000000000 Sb
   0.0000880000000000    0.0000880000000000    0.0000880000000000 Te
   0.6028479999999991    0.6028479999999991    0.6028479999999991 Te
   0.2033770000000000    0.2033770000000000    0.2033770000000000 Te
   0.8025000000000000    0.8025000000000000    0.8025000000000000 Te
   0.4031880000000000    0.4031880000000000    0.4031880000000000 Te
