Zn3 Te1 As2 Pb3 O14
1.0
   4.2768378000000000   -7.4077001600000001    0.0000000000000000
   4.2768378000000000    7.4077001600000001   -0.0000000000000000
   0.0000000000000000   -0.0000000000000000    5.2504500199999997
Zn Te As Pb O
3 1 2 3 14
direct
   0.2411637900000000   -0.0000000000000000    0.5000000000000000 Zn
   0.7588362100000000    0.7588362100000000    0.5000000000000000 Zn
  -0.0000000000000000    0.2411637900000000    0.5000000000000000 Zn
  -0.0000000000000000   -0.0000000000000000    0.0000000000000000 Te
   0.3333330000000000    0.6666670000000000    0.5449013300000000 As
   0.6666670000000000    0.3333330000000000    0.4550986700000000 As
   0.6002263999999990    1.0000000000000000    0.0000000000000000 Pb
   0.3997736000000000    0.3997736000000000    0.0000000000000000 Pb
   1.0000000000000000    0.6002263999999990    0.0000000000000000 Pb
   0.5395663700000000    0.7292706000000000    0.6747559100000000 O
   0.4604336300000000    0.1897042200000000    0.3252440900000000 O
   0.1228446400000000    0.2116027600000000    0.2112685500000000 O
   0.2707294000000000    0.8102957800000000    0.6747559100000000 O
   0.0887581200000000    0.8771553600000001    0.2112685500000000 O
   0.9112418800000001    0.7883972400000000    0.7887314500000000 O
   0.6666670000000000    0.3333330000000000    0.7758260400000000 O
   0.8771553600000001    0.0887581200000000    0.7887314500000000 O
   0.1897042200000000    0.4604336300000000    0.6747559100000000 O
   0.7883972400000000    0.9112418800000001    0.2112685500000000 O
   0.3333330000000000    0.6666670000000000    0.2241739600000000 O
   0.2116027600000000    0.1228446400000000    0.7887314500000000 O
   0.8102957800000000    0.2707294000000000    0.3252440900000000 O
   0.7292706000000000    0.5395663700000000    0.3252440900000000 O
