Li12 Sb4 H72 S16 O36
1.0
  11.5397929999999995    0.0000000000000000    0.0000000000000000
   0.0000000000000000   11.5397929999999995    0.0000000000000000
   0.0000000000000000    0.0000000000000000   11.5397929999999995
Li Sb H S O
12 4 72 16 36
direct
   0.0497380000000000    0.5497379999999999    0.9502619999999991 Li
   0.0904770000000000    0.9095230000000000    0.4095229999999990 Li
   0.2051260000000000    0.7051259999999990    0.7948740000000000 Li
   0.2948739999999990    0.2948739999999990    0.2948739999999990 Li
   0.4095229999999990    0.0904770000000000    0.9095230000000000 Li
   0.4502620000000000    0.4502620000000000    0.4502620000000000 Li
   0.5497379999999999    0.9502619999999991    0.0497380000000000 Li
   0.5904769999999990    0.5904769999999990    0.5904769999999990 Li
   0.7051259999999990    0.7948740000000000    0.2051260000000000 Li
   0.7948740000000000    0.2051260000000000    0.7051259999999990 Li
   0.9095230000000000    0.4095229999999990    0.0904770000000000 Li
   0.9502619999999991    0.0497380000000000    0.5497379999999999 Li
   0.0383730000000000    0.0383730000000000    0.0383730000000000 Sb
   0.4616269999999990    0.9616270000000000    0.5383730000000000 Sb
   0.5383730000000000    0.4616269999999990    0.9616270000000000 Sb
   0.9616270000000000    0.5383730000000000    0.4616269999999990 Sb
   0.0157280000000000    0.2519700000000000    0.6565289999999990 H
   0.0271889999999990    0.3051510000000000    0.9275779999999991 H
   0.0374180000000000    0.1650559999999990    0.7588619999999990 H
   0.0558349999999990    0.2269739999999990    0.2673089999999990 H
   0.0649339999999990    0.3105060000000000    0.3729659999999990 H
   0.0770140000000000    0.8681460000000000    0.6373740000000000 H
   0.0724220000000000    0.5271890000000000    0.1948490000000000 H
   0.1270340000000000    0.9350660000000000    0.8105059999999999 H
   0.1373740000000000    0.4229860000000000    0.1318540000000000 H
   0.1318540000000000    0.1373740000000000    0.4229860000000000 H
   0.1565290000000000    0.4842720000000000    0.7480300000000001 H
   0.1650559999999990    0.7588619999999990    0.0374180000000000 H
   0.1894940000000000    0.6270340000000000    0.5649339999999990 H
   0.1948490000000000    0.0724220000000000    0.5271890000000000 H
   0.2269739999999990    0.2673089999999990    0.0558349999999990 H
   0.2326909999999990    0.9441649999999990    0.7269740000000000 H
   0.2411380000000000    0.5374180000000000    0.3349439999999990 H
   0.2480300000000000    0.3434709999999990    0.5157280000000000 H
   0.2519700000000000    0.6565289999999990    0.0157280000000000 H
   0.2588620000000000    0.4625820000000000    0.8349439999999990 H
   0.2673089999999990    0.0558349999999990    0.2269739999999990 H
   0.2730260000000000    0.7326910000000000    0.5558350000000000 H
   0.3051510000000000    0.9275779999999991    0.0271889999999990 H
   0.3105060000000000    0.3729659999999990    0.0649339999999990 H
   0.3349439999999990    0.2411380000000000    0.5374180000000000 H
   0.3434709999999990    0.5157280000000000    0.2480300000000000 H
   0.3681460000000000    0.8626260000000000    0.9229860000000000 H
   0.3626260000000000    0.5770140000000000    0.6318540000000000 H
   0.3729659999999990    0.0649339999999990    0.3105060000000000 H
   0.4275779999999990    0.4728110000000000    0.6948489999999991 H
   0.4229860000000000    0.1318540000000000    0.1373740000000000 H
   0.4350659999999990    0.6894939999999991    0.8729659999999990 H
   0.4441650000000000    0.7730260000000000    0.7673090000000000 H
   0.4625820000000000    0.8349439999999990    0.2588620000000000 H
   0.4728110000000000    0.6948489999999991    0.4275779999999990 H
   0.4842720000000000    0.7480300000000001    0.1565290000000000 H
   0.5157280000000000    0.2480300000000000    0.3434709999999990 H
   0.5271890000000000    0.1948490000000000    0.0724220000000000 H
   0.5374180000000000    0.3349439999999990    0.2411380000000000 H
   0.5558350000000000    0.2730260000000000    0.7326910000000000 H
   0.5649339999999990    0.1894940000000000    0.6270340000000000 H
   0.5770140000000000    0.6318540000000000    0.3626260000000000 H
   0.5724220000000000    0.9728110000000000    0.8051510000000000 H
   0.6270340000000000    0.5649339999999990    0.1894940000000000 H
   0.6373740000000000    0.0770140000000000    0.8681460000000000 H
   0.6318540000000000    0.3626260000000000    0.5770140000000000 H
   0.6565289999999990    0.0157280000000000    0.2519700000000000 H
   0.6650560000000000    0.7411380000000000    0.9625819999999990 H
   0.6894939999999991    0.8729659999999990    0.4350659999999990 H
   0.6948489999999991    0.4275779999999990    0.4728110000000000 H
   0.7269740000000000    0.2326909999999990    0.9441649999999990 H
   0.7326910000000000    0.5558350000000000    0.2730260000000000 H
   0.7411380000000000    0.9625819999999990    0.6650560000000000 H
   0.7480300000000001    0.1565290000000000    0.4842720000000000 H
   0.7519700000000000    0.8434710000000000    0.9842719999999990 H
   0.7588619999999990    0.0374180000000000    0.1650559999999990 H
   0.7673090000000000    0.4441650000000000    0.7730260000000000 H
   0.7730260000000000    0.7673090000000000    0.4441650000000000 H
   0.8051510000000000    0.5724220000000000    0.9728110000000000 H
   0.8105059999999999    0.1270340000000000    0.9350660000000000 H
   0.8349439999999990    0.2588620000000000    0.4625820000000000 H
   0.8434710000000000    0.9842719999999990    0.7519700000000000 H
   0.8681460000000000    0.6373740000000000    0.0770140000000000 H
   0.8626260000000000    0.9229860000000000    0.3681460000000000 H
   0.8729659999999990    0.4350659999999990    0.6894939999999991 H
   0.9275779999999991    0.0271889999999990    0.3051510000000000 H
   0.9229860000000000    0.3681460000000000    0.8626260000000000 H
   0.9350660000000000    0.8105059999999999    0.1270340000000000 H
   0.9441649999999990    0.7269740000000000    0.2326909999999990 H
   0.9625819999999990    0.6650560000000000    0.7411380000000000 H
   0.9728110000000000    0.8051510000000000    0.5724220000000000 H
   0.9842719999999990    0.7519700000000000    0.8434710000000000 H
   0.0801530000000000    0.4198469999999990    0.5801529999999990 S
   0.0825940000000000    0.6555139999999990    0.3451610000000000 S
   0.1548390000000000    0.9174059999999991    0.1555139999999990 S
   0.1555139999999990    0.1548390000000000    0.9174059999999991 S
   0.3444859999999990    0.8451609999999991    0.4174060000000000 S
   0.3451610000000000    0.0825940000000000    0.6555139999999990 S
   0.4174060000000000    0.3444859999999990    0.8451609999999991 S
   0.4198469999999990    0.5801529999999990    0.0801530000000000 S
   0.5801529999999990    0.0801530000000000    0.4198469999999990 S
   0.5825939999999999    0.8444860000000000    0.6548389999999999 S
   0.6548389999999999    0.5825939999999999    0.8444860000000000 S
   0.6555139999999990    0.3451610000000000    0.0825940000000000 S
   0.8444860000000000    0.6548389999999999    0.5825939999999999 S
   0.8451609999999991    0.4174060000000000    0.3444859999999990 S
   0.9174059999999991    0.1555139999999990    0.1548390000000000 S
   0.9198470000000000    0.9198470000000000    0.9198470000000000 S
   0.0137089999999990    0.6792969999999990    0.8085209999999990 O
   0.0258160000000000    0.8724250000000000    0.5681849999999991 O
   0.0681850000000000    0.4741840000000000    0.1275750000000000 O
   0.1111940000000000    0.2556540000000000    0.3270710000000000 O
   0.1275750000000000    0.0681850000000000    0.4741840000000000 O
   0.1729290000000000    0.8888060000000000    0.7556539999999990 O
   0.1792969999999990    0.6914790000000000    0.9862909999999990 O
   0.1914789999999990    0.5137090000000000    0.8207030000000000 O
   0.2443459999999990    0.6729290000000000    0.6111940000000000 O
   0.2556540000000000    0.3270710000000000    0.1111940000000000 O
   0.3085210000000000    0.4862910000000000    0.3207029999999990 O
   0.3207029999999990    0.3085210000000000    0.4862910000000000 O
   0.3270710000000000    0.1111940000000000    0.2556540000000000 O
   0.3724250000000000    0.9318149999999999    0.9741839999999991 O
   0.3888060000000000    0.7443460000000000    0.8270710000000000 O
   0.4318150000000000    0.5258160000000000    0.6275750000000000 O
   0.4741840000000000    0.1275750000000000    0.0681850000000000 O
   0.4862910000000000    0.3207029999999990    0.3085210000000000 O
   0.5137090000000000    0.8207030000000000    0.1914789999999990 O
   0.5258160000000000    0.6275750000000000    0.4318150000000000 O
   0.5681849999999991    0.0258160000000000    0.8724250000000000 O
   0.6111940000000000    0.2443459999999990    0.6729290000000000 O
   0.6275750000000000    0.4318150000000000    0.5258160000000000 O
   0.6729290000000000    0.6111940000000000    0.2443459999999990 O
   0.6792969999999990    0.8085209999999990    0.0137089999999990 O
   0.6914790000000000    0.9862909999999990    0.1792969999999990 O
   0.7443460000000000    0.8270710000000000    0.3888060000000000 O
   0.7556539999999990    0.1729290000000000    0.8888060000000000 O
   0.8085209999999990    0.0137089999999990    0.6792969999999990 O
   0.8207030000000000    0.1914789999999990    0.5137090000000000 O
   0.8270710000000000    0.3888060000000000    0.7443460000000000 O
   0.8724250000000000    0.5681849999999991    0.0258160000000000 O
   0.8888060000000000    0.7556539999999990    0.1729290000000000 O
   0.9318149999999999    0.9741839999999991    0.3724250000000000 O
   0.9741839999999991    0.3724250000000000    0.9318149999999999 O
   0.9862909999999990    0.1792969999999990    0.6914790000000000 O
