As4 C12 S12 N4 F44
1.0
   6.0329379999999997    0.0000000000000000    0.0000000000000000
   0.0000000000000000   15.0131209999999999    0.0000000000000000
   0.0000000000000000    5.9807540000000001   14.2906119999999994
As C S N F
4 12 12 4 44
direct
   0.1115940000000000    0.9475629999999990    0.3319400000000000 As
   0.6115940000000000    0.5524370000000000    0.6680600000000001 As
   0.8884059999999990    0.0524370000000000    0.6680600000000001 As
   0.3884060000000000    0.4475630000000000    0.3319400000000000 As
   0.2953739999999990    0.2607850000000000    0.7791290000000000 C
   0.7953739999999990    0.2392149999999990    0.2208709999999990 C
   0.7046260000000000    0.7392150000000000    0.2208709999999990 C
   0.2046260000000000    0.7607849999999990    0.7791290000000000 C
   0.3353279999999990    0.2232229999999990    0.8847579999999990 C
   0.8353280000000000    0.2767770000000000    0.1152420000000000 C
   0.6646719999999990    0.7767769999999991    0.1152420000000000 C
   0.1646719999999990    0.7232229999999999    0.8847579999999990 C
   0.2351569999999990    0.1203549999999990    0.9406180000000000 C
   0.7351569999999999    0.3796450000000000    0.0593820000000000 C
   0.7648429999999991    0.8796450000000000    0.0593820000000000 C
   0.2648430000000000    0.6203550000000000    0.9406180000000000 C
   0.0639500000000000    0.3354320000000000    0.7350820000000000 S
   0.5639500000000001    0.1645680000000000    0.2649180000000000 S
   0.9360500000000000    0.6645679999999990    0.2649180000000000 S
   0.4360500000000000    0.8354320000000000    0.7350820000000000 S
   0.1078500000000000    0.3619509999999990    0.5975600000000001 S
   0.6078500000000000    0.1380490000000000    0.4024400000000000 S
   0.8921500000000001    0.6380490000000000    0.4024400000000000 S
   0.3921500000000001    0.8619509999999990    0.5975600000000001 S
   0.3987670000000000    0.2772509999999990    0.6149200000000000 S
   0.8987670000000000    0.2227490000000000    0.3850800000000000 S
   0.6012330000000000    0.7227490000000000    0.3850800000000000 S
   0.1012329999999990    0.7772509999999990    0.6149200000000000 S
   0.4296530000000000    0.2394710000000000    0.7254440000000000 N
   0.9296530000000000    0.2605290000000000    0.2745559999999990 N
   0.5703469999999990    0.7605290000000000    0.2745559999999990 N
   0.0703469999999990    0.7394710000000000    0.7254440000000000 N
   0.5569069999999990    0.2194239999999990    0.9021490000000000 F
   0.0569070000000000    0.2805760000000000    0.0978510000000000 F
   0.4430929999999990    0.7805759999999990    0.0978510000000000 F
   0.9430930000000000    0.7194240000000000    0.9021490000000000 F
   0.2393980000000000    0.2859089999999990    0.9187860000000000 F
   0.7393980000000000    0.2140910000000000    0.0812140000000000 F
   0.7606020000000000    0.7140909999999990    0.0812140000000000 F
   0.2606020000000000    0.7859090000000000    0.9187860000000000 F
   0.3241500000000000    0.0550140000000000    0.9107080000000000 F
   0.8241500000000000    0.4449860000000000    0.0892920000000000 F
   0.6758500000000001    0.9449860000000000    0.0892920000000000 F
   0.1758500000000000    0.5550140000000000    0.9107080000000000 F
   0.0124029999999990    0.1227070000000000    0.9283000000000000 F
   0.5124029999999991    0.3772930000000000    0.0717000000000000 F
   0.9875969999999999    0.8772930000000000    0.0717000000000000 F
   0.4875970000000000    0.6227070000000000    0.9283000000000000 F
   0.2787270000000000    0.0939290000000000    0.0325219999999990 F
   0.7787269999999999    0.4060709999999990    0.9674779999999999 F
   0.7212729999999991    0.9060710000000000    0.9674779999999999 F
   0.2212730000000000    0.5939289999999990    0.0325219999999990 F
   0.0123690000000000    0.8740770000000000    0.2744160000000000 F
   0.5123690000000000    0.6259230000000000    0.7255840000000000 F
   0.9876309999999990    0.1259230000000000    0.7255840000000000 F
   0.4876310000000000    0.3740770000000000    0.2744160000000000 F
   0.2125780000000000    0.0192210000000000    0.3931179999999990 F
   0.7125779999999990    0.4807789999999990    0.6068819999999990 F
   0.7874220000000000    0.9807790000000000    0.6068819999999990 F
   0.2874220000000000    0.5192209999999990    0.3931179999999990 F
   0.0059410000000000    0.0531400000000000    0.2434920000000000 F
   0.5059410000000000    0.4468600000000000    0.7565080000000000 F
   0.9940589999999990    0.9468600000000000    0.7565080000000000 F
   0.4940589999999990    0.5531400000000001    0.2434920000000000 F
   0.8601120000000000    0.9299010000000000    0.3952520000000000 F
   0.3601120000000000    0.5700990000000000    0.6047480000000000 F
   0.1398879999999990    0.0700990000000000    0.6047480000000000 F
   0.6398880000000000    0.4299010000000000    0.3952520000000000 F
   0.2228079999999990    0.8416690000000000    0.4242640000000000 F
   0.7228080000000000    0.6583310000000000    0.5757360000000000 F
   0.7771920000000000    0.1583310000000000    0.5757360000000000 F
   0.2771920000000000    0.3416690000000000    0.4242640000000000 F
   0.3670759999999990    0.9624500000000000    0.2729110000000000 F
   0.8670760000000000    0.5375500000000001    0.7270890000000000 F
   0.6329239999999990    0.0375500000000000    0.7270890000000000 F
   0.1329240000000000    0.4624500000000000    0.2729110000000000 F
