Hg6 As2 S8 Br2
1.0
   3.7936049999999999   -6.5707160000000000    0.0000000000000000
   3.7936049999999999    6.5707160000000000    0.0000000000000000
   0.0000000000000000    0.0000000000000000   10.0600919999999991
Hg As S Br
6 2 8 2
direct
   0.4973889999999990    0.9947779999999991    0.2425910000000000 Hg
   0.9947779999999991    0.4973889999999990    0.7425910000000000 Hg
   0.0052220000000000    0.5026110000000000    0.2425910000000000 Hg
   0.5026110000000000    0.4973889999999990    0.7425910000000000 Hg
   0.5026110000000000    0.0052220000000000    0.7425910000000000 Hg
   0.4973889999999990    0.5026110000000000    0.2425910000000000 Hg
   0.0000000000000000    0.0000000000000000    0.7343670000000000 As
   0.0000000000000000    0.0000000000000000    0.2343670000000000 As
   0.7014969999999990    0.8507479999999999    0.8547640000000000 S
   0.6666670000000000    0.3333330000000000    0.6173149999999999 S
   0.8507479999999999    0.1492520000000000    0.3547639999999990 S
   0.1492520000000000    0.2985029999999990    0.8547640000000000 S
   0.2985029999999990    0.1492520000000000    0.3547639999999990 S
   0.8507479999999999    0.7014969999999990    0.3547639999999990 S
   0.1492520000000000    0.8507479999999999    0.8547640000000000 S
   0.3333330000000000    0.6666670000000000    0.1173149999999990 S
   0.6666670000000000    0.3333330000000000    0.0362560000000000 Br
   0.3333330000000000    0.6666670000000000    0.5362560000000000 Br
