Cu2 As4 S8 O16 F24
1.0
  13.2146570000000008    0.0000000000000000    0.0000000000000000
   0.0000000000000000    7.6904599999999999    0.0000000000000000
   0.0000000000000000    2.4041320000000002    8.8780450000000002
Cu As S O F
2 4 8 16 24
direct
   0.5000000000000000    0.0000000000000000    0.5000000000000000 Cu
   0.0000000000000000    0.0000000000000000    0.0000000000000000 Cu
   0.8649669999999990    0.6859259999999990    0.7848820000000000 As
   0.6350330000000000    0.6859259999999990    0.2848819999999990 As
   0.1350330000000000    0.3140739999999990    0.2151180000000000 As
   0.3649670000000000    0.3140739999999990    0.7151179999999990 As
   0.7070660000000000    0.2041280000000000    0.5485220000000000 S
   0.4577540000000000    0.2723470000000000    0.1688029999999990 S
   0.9577540000000000    0.7276530000000000    0.3311969999999990 S
   0.7929339999999990    0.2041280000000000    0.0485219999999990 S
   0.2070660000000000    0.7958719999999990    0.9514779999999990 S
   0.5422460000000000    0.7276530000000000    0.8311970000000000 S
   0.0422460000000000    0.2723470000000000    0.6688029999999990 S
   0.2929339999999990    0.7958719999999990    0.4514780000000000 S
   0.9364950000000000    0.8196140000000000    0.1719540000000000 O
   0.3090200000000000    0.8290100000000000    0.2922140000000000 O
   0.5635049999999990    0.8196140000000000    0.6719539999999991 O
   0.0635049999999990    0.1803860000000000    0.8280459999999999 O
   0.4364949999999990    0.1803860000000000    0.3280460000000000 O
   0.5505390000000000    0.2270130000000000    0.1060960000000000 O
   0.4494610000000000    0.7729870000000000    0.8939039999999990 O
   0.1909800000000000    0.8290100000000000    0.7922140000000000 O
   0.8687210000000000    0.1301870000000000    0.9622640000000000 O
   0.0505390000000000    0.7729870000000000    0.3939040000000000 O
   0.6909800000000000    0.1709900000000000    0.7077859999999990 O
   0.3687209999999990    0.8698129999999999    0.5377360000000000 O
   0.6312789999999990    0.1301870000000000    0.4622639999999990 O
   0.9494610000000000    0.2270130000000000    0.6060960000000000 O
   0.8090200000000001    0.1709900000000000    0.2077860000000000 O
   0.1312790000000000    0.8698129999999999    0.0377360000000000 O
   0.5398360000000000    0.8260719999999990    0.3371969999999990 F
   0.7742519999999991    0.5429920000000000    0.7360129999999990 F
   0.6475639999999990    0.8462430000000000    0.1087930000000000 F
   0.1475640000000000    0.1537570000000000    0.3912069999999990 F
   0.8524360000000000    0.8462430000000000    0.6087929999999990 F
   0.5365090000000000    0.5778880000000000    0.2078620000000000 F
   0.3824090000000000    0.4726920000000000    0.5368710000000000 F
   0.0365090000000000    0.4221120000000000    0.2921380000000000 F
   0.3524359999999990    0.1537570000000000    0.8912070000000000 F
   0.7257479999999999    0.5429920000000000    0.2360130000000000 F
   0.1175910000000000    0.4726920000000000    0.0368710000000000 F
   0.2257479999999990    0.4570079999999990    0.2639869999999990 F
   0.9601639999999991    0.8260719999999990    0.8371970000000000 F
   0.9634910000000000    0.5778880000000000    0.7078620000000000 F
   0.2289419999999990    0.2030239999999990    0.1372200000000000 F
   0.2742520000000000    0.4570079999999990    0.7639870000000000 F
   0.4601639999999990    0.1739280000000000    0.6628029999999990 F
   0.7710579999999990    0.7969760000000000    0.8627800000000001 F
   0.0398359999999990    0.1739280000000000    0.1628030000000000 F
   0.6175910000000000    0.5273080000000000    0.4631289999999990 F
   0.8824090000000000    0.5273080000000000    0.9631289999999991 F
   0.7289420000000000    0.7969760000000000    0.3627800000000000 F
   0.2710579999999990    0.2030239999999990    0.6372200000000000 F
   0.4634910000000000    0.4221120000000000    0.7921380000000000 F
