Bi6 Se8 Br2
1.0
   2.0627350000000000   10.5736919999999994    0.0000000000000000
  -2.0627350000000000   10.5736919999999994    0.0000000000000000
   0.0000000000000000    4.9564190000000004   11.1513570000000009
Bi Se Br
6 8 2
direct
   0.0890550000000000    0.0890550000000000    0.0373180000000000 Bi
   0.9109450000000000    0.9109450000000000    0.9626819999999990 Bi
   0.6726920000000000    0.6726920000000000    0.2627430000000000 Bi
   0.3273080000000000    0.3273080000000000    0.7372569999999991 Bi
   0.1515640000000000    0.1515640000000000    0.5854119999999990 Bi
   0.8484360000000000    0.8484360000000000    0.4145879999999990 Bi
   0.4144310000000000    0.4144310000000000    0.4919969999999990 Se
   0.5855690000000000    0.5855690000000000    0.5080030000000000 Se
   0.6865329999999999    0.6865329999999999    0.9816480000000000 Se
   0.3134670000000000    0.3134670000000000    0.0183520000000000 Se
   0.0770280000000000    0.0770280000000000    0.2729950000000000 Se
   0.9229719999999991    0.9229719999999991    0.7270050000000000 Se
   0.2535030000000000    0.2535030000000000    0.3574040000000000 Se
   0.7464970000000000    0.7464970000000000    0.6425959999999999 Se
   0.4567049999999990    0.4567049999999990    0.1653939999999990 Br
   0.5432950000000000    0.5432950000000000    0.8346060000000000 Br
