K12 Sb4 Se12
1.0
   9.8384740599999994    0.0000000000000000    0.0000000000000000
   0.0000000000000000    9.8384740599999994    0.0000000000000000
   0.0000000000000000    0.0000000000000000    9.8384740599999994
K Sb Se
12 4 12
direct
   0.8182537700000000    0.1817462300000000    0.6817462300000000 K
   0.1871171400000000    0.3128828600000000    0.6871171400000000 K
   0.3128828600000000    0.6871171400000000    0.1871171400000000 K
   0.6871171400000000    0.1871171400000000    0.3128828600000000 K
   0.8128828600000000    0.8128828600000000    0.8128828600000000 K
   0.4222230400000000    0.0777769600000000    0.9222230400000000 K
   0.0777769600000000    0.9222230400000000    0.4222230400000000 K
   0.9222230400000000    0.4222230400000000    0.0777769600000000 K
   0.5777769600000000    0.5777769600000000    0.5777769600000000 K
   0.6817462300000000    0.8182537700000000    0.1817462300000000 K
   0.1817462300000000    0.6817462300000000    0.8182537700000000 K
   0.3182537700000000    0.3182537700000000    0.3182537700000000 K
   0.0288817200000000    0.0288817200000000    0.0288817200000000 Sb
   0.4711182800000000    0.9711182800000000    0.5288817200000000 Sb
   0.5288817200000000    0.4711182800000000    0.9711182800000000 Sb
   0.9711182800000000    0.5288817200000000    0.4711182800000000 Sb
   0.2212471500000000    0.6029095999999990    0.4972417200000000 Se
   0.7787528500000001    0.1029095999999990    0.0027582800000000 Se
   0.9972417200000000    0.2787528500000000    0.3970903999999990 Se
   0.7212471500000001    0.8970904000000000    0.5027582800000000 Se
   0.1029095999999990    0.0027582800000000    0.7787528500000001 Se
   0.5027582800000000    0.7212471500000001    0.8970904000000000 Se
   0.0027582800000000    0.7787528500000001    0.1029095999999990 Se
   0.3970903999999990    0.9972417200000000    0.2787528500000000 Se
   0.4972417200000000    0.2212471500000000    0.6029095999999990 Se
   0.8970904000000000    0.5027582800000000    0.7212471500000001 Se
   0.6029095999999990    0.4972417200000000    0.2212471500000000 Se
   0.2787528500000000    0.3970903999999990    0.9972417200000000 Se
