Cs6 Cu4 Bi10 S20
1.0
   4.1144999999999996    0.0000000000000000    0.0000000000000000
   0.0000000000000000   15.2105449999999998    0.0000000000000000
   0.0000000000000000    0.0000000000000000   18.1994650000000000
Cs Cu Bi S
6 4 10 20
direct
   0.0000000000000000    0.0000000000000000    0.5000000000000000 Cs
   0.0000000000000000    0.5224400000000000    0.7523200000000001 Cs
   0.5000000000000000    0.9775600000000001    0.2523200000000000 Cs
   0.0000000000000000    0.4775600000000000    0.2476800000000000 Cs
   0.5000000000000000    0.0224400000000000    0.7476800000000000 Cs
   0.5000000000000000    0.5000000000000000    0.0000000000000000 Cs
   0.0000000000000000    0.7795080000000000    0.7596569999999990 Cu
   0.5000000000000000    0.2795080000000000    0.7403430000000000 Cu
   0.0000000000000000    0.2204920000000000    0.2403430000000000 Cu
   0.5000000000000000    0.7204920000000000    0.2596569999999990 Cu
   0.0000000000000000    0.7113159999999999    0.4097480000000000 Bi
   0.5000000000000000    0.2442450000000000    0.3943419999999990 Bi
   0.0000000000000000    0.2886840000000000    0.5902520000000000 Bi
   0.5000000000000000    0.7557550000000000    0.6056579999999990 Bi
   0.0000000000000000    0.2557550000000000    0.8943420000000000 Bi
   0.5000000000000000    0.2113160000000000    0.0902520000000000 Bi
   0.5000000000000000    0.7886839999999991    0.9097480000000000 Bi
   0.0000000000000000    0.7442449999999990    0.1056580000000000 Bi
   0.0000000000000000    0.0000000000000000    0.0000000000000000 Bi
   0.5000000000000000    0.5000000000000000    0.5000000000000000 Bi
   0.5000000000000000    0.3613949999999990    0.8492100000000000 S
   0.5000000000000000    0.5968620000000000    0.3657010000000000 S
   0.0000000000000000    0.3855619999999990    0.4415710000000000 S
   0.0000000000000000    0.8613949999999990    0.6507900000000001 S
   0.5000000000000000    0.8219980000000000    0.4709120000000000 S
   0.5000000000000000    0.4031380000000000    0.6342989999999999 S
   0.0000000000000000    0.9031380000000000    0.8657009999999991 S
   0.0000000000000000    0.7928060000000000    0.2791800000000000 S
   0.0000000000000000    0.0968619999999990    0.1342990000000000 S
   0.5000000000000000    0.7071940000000000    0.7791800000000001 S
   0.5000000000000000    0.1144380000000000    0.9415709999999990 S
   0.5000000000000000    0.2928060000000000    0.2208200000000000 S
   0.0000000000000000    0.2071940000000000    0.7208200000000000 S
   0.0000000000000000    0.3219980000000000    0.0290880000000000 S
   0.0000000000000000    0.6780020000000000    0.9709120000000000 S
   0.5000000000000000    0.8855620000000000    0.0584289999999990 S
   0.5000000000000000    0.6386050000000000    0.1507900000000000 S
   0.0000000000000000    0.1386050000000000    0.3492100000000000 S
   0.5000000000000000    0.1780020000000000    0.5290880000000000 S
   0.0000000000000000    0.6144379999999990    0.5584290000000000 S
