Sb4 As12 S16 F24
1.0
   6.1955980000000004    0.0000000000000000    0.0000000000000000
   0.0000000000000000   10.1107549999999993    0.0000000000000000
   0.0000000000000000    0.0000000000000000   20.8100009999999997
Sb As S F
4 12 16 24
direct
   0.4908000000000000    0.2500000000000000    0.6628839999999990 Sb
   0.5092000000000000    0.2500000000000000    0.1628840000000000 Sb
   0.5092000000000000    0.7500000000000000    0.3371159999999990 Sb
   0.4908000000000000    0.7500000000000000    0.8371160000000000 Sb
   0.9414400000000001    0.7500000000000000    0.5103230000000000 As
   0.0051830000000000    0.6247940000000000    0.1710219999999990 As
   0.0585600000000000    0.7500000000000000    0.0103229999999990 As
   0.9948170000000000    0.1247939999999990    0.8289780000000000 As
   0.9414400000000001    0.2500000000000000    0.9896769999999990 As
   0.0051830000000000    0.8752059999999990    0.1710219999999990 As
   0.9948170000000000    0.6247940000000000    0.6710220000000000 As
   0.9948170000000000    0.8752059999999990    0.6710220000000000 As
   0.9948170000000000    0.3752060000000000    0.8289780000000000 As
   0.0051830000000000    0.1247939999999990    0.3289780000000000 As
   0.0585600000000000    0.2500000000000000    0.4896770000000000 As
   0.0051830000000000    0.3752060000000000    0.3289780000000000 As
   0.6970370000000000    0.7500000000000000    0.1342890000000000 S
   0.6965890000000000    0.2500000000000000    0.4624950000000000 S
   0.8556250000000000    0.0789230000000000    0.9239259999999990 S
   0.8556250000000000    0.4210770000000000    0.9239259999999990 S
   0.8556250000000000    0.5789230000000000    0.5760740000000000 S
   0.1443750000000000    0.9210769999999990    0.0760740000000000 S
   0.3034110000000000    0.2500000000000000    0.9624950000000000 S
   0.1443750000000000    0.0789230000000000    0.4239259999999990 S
   0.1443750000000000    0.4210770000000000    0.4239259999999990 S
   0.3029630000000000    0.7500000000000000    0.6342890000000000 S
   0.3034110000000000    0.7500000000000000    0.5375050000000000 S
   0.6965890000000000    0.7500000000000000    0.0375050000000000 S
   0.3029630000000000    0.2500000000000000    0.8657110000000000 S
   0.1443750000000000    0.5789230000000000    0.0760740000000000 S
   0.8556250000000000    0.9210769999999990    0.5760740000000000 S
   0.6970370000000000    0.2500000000000000    0.3657110000000000 S
   0.3478300000000000    0.3845760000000000    0.6136079999999990 F
   0.7279460000000000    0.2500000000000000    0.6029550000000000 F
   0.6335020000000000    0.6166910000000000    0.7870300000000000 F
   0.2519590000000000    0.7500000000000000    0.7765820000000000 F
   0.2720539999999990    0.7500000000000000    0.3970450000000000 F
   0.7480410000000000    0.7500000000000000    0.2765820000000000 F
   0.6521700000000000    0.8845759999999990    0.3863919999999990 F
   0.6521700000000000    0.1154240000000000    0.1136080000000000 F
   0.3664980000000000    0.3833089999999990    0.2129700000000000 F
   0.6521700000000000    0.3845760000000000    0.1136080000000000 F
   0.3664980000000000    0.8833090000000000    0.2870300000000000 F
   0.6335020000000000    0.8833090000000000    0.7870300000000000 F
   0.3664980000000000    0.6166910000000000    0.2870300000000000 F
   0.2519590000000000    0.2500000000000000    0.7234180000000000 F
   0.6335020000000000    0.1166909999999990    0.7129700000000001 F
   0.6335020000000000    0.3833089999999990    0.7129700000000001 F
   0.3664980000000000    0.1166909999999990    0.2129700000000000 F
   0.6521700000000000    0.6154240000000000    0.3863919999999990 F
   0.3478300000000000    0.6154240000000000    0.8863920000000000 F
   0.2720539999999990    0.2500000000000000    0.1029549999999990 F
   0.3478300000000000    0.8845759999999990    0.8863920000000000 F
   0.7480410000000000    0.2500000000000000    0.2234179999999990 F
   0.7279460000000000    0.7500000000000000    0.8970450000000000 F
   0.3478300000000000    0.1154240000000000    0.6136079999999990 F
