Li1 Sb1 Te3 O12
1.0
  -4.9955093799999997    0.0009792800000000   -0.0016854500000000
  -0.0033729600000000    5.2707305099999999   -0.0346857100000000
  -0.0030631500000000    0.4680075100000000   -7.2527224700000001
Li Sb Te O
1 1 3 12
direct
   0.0012655700000000    0.4217185400000000    0.2119889600000000 Li
   0.9977738400000000    0.0035608300000000    0.9985176200000000 Sb
   0.4981894600000000    0.5103821800000000    0.9981544800000001 Te
   0.0008425900000000    0.0027713100000000    0.5072654900000000 Te
   0.5019644200000000    0.5079518700000000    0.5061243300000000 Te
   0.6888382600000000    0.1961907400000000    0.5728533800000000 O
   0.8790621999999990    0.0278792000000000    0.2601525400000000 O
   0.6695424800000001    0.8251213100000000    0.9397863400000001 O
   0.8148777500000001    0.6907088600000000    0.5705273400000000 O
   0.1870075800000000    0.6875193800000000    0.0729988100000000 O
   0.6327634500000000    0.5155459600000000    0.2555531000000000 O
   0.3652210800000000    0.5044317200000000    0.7510316400000000 O
   0.8191642500000000    0.3366618100000000    0.9522145400000001 O
   0.1884580100000000    0.3223543400000000    0.4386758700000000 O
   0.3069926200000000    0.2101586700000000    0.0733243600000000 O
   0.1356682000000000    0.0058065100000000    0.7474293500000000 O
   0.3123662300000000    0.8168407800000000    0.4362028400000000 O
