Cu8 As36 P12 S36 I8
1.0
  14.1697360000000003    0.0000000000000000    0.0000000000000000
   0.0000000000000000   12.4540220000000001    0.0000000000000000
   0.0000000000000000    0.7604000000000001   16.3332130000000006
Cu As P S I
8 36 12 36 8
direct
   0.7374090000000000    0.3045350000000000    0.5792929999999999 Cu
   0.2374089999999990    0.6954650000000000    0.9207069999999991 Cu
   0.2625909999999990    0.6954650000000000    0.4207070000000000 Cu
   0.7625910000000000    0.3045350000000000    0.0792930000000000 Cu
   0.7773110000000000    0.2831000000000000    0.8170149999999990 Cu
   0.2773110000000000    0.7169000000000000    0.6829850000000000 Cu
   0.2226890000000000    0.7169000000000000    0.1829849999999990 Cu
   0.7226889999999990    0.2831000000000000    0.3170150000000000 Cu
   0.7555160000000000    0.8629270000000000    0.6845319999999990 As
   0.2555159999999990    0.1370730000000000    0.8154680000000000 As
   0.2444839999999990    0.1370730000000000    0.3154679999999990 As
   0.7444839999999990    0.8629270000000000    0.1845320000000000 As
   0.7906050000000000    0.9689500000000001    0.8083549999999990 As
   0.2906050000000000    0.0310500000000000    0.6916450000000000 As
   0.2093950000000000    0.0310500000000000    0.1916449999999990 As
   0.7093950000000000    0.9689500000000001    0.3083550000000000 As
   0.6228760000000000    0.9423910000000000    0.7630610000000000 As
   0.1228760000000000    0.0576090000000000    0.7369390000000000 As
   0.3771239999999990    0.0576090000000000    0.2369389999999990 As
   0.8771240000000000    0.9423910000000000    0.2630610000000000 As
   0.4604470000000000    0.3421320000000000    0.5747320000000000 As
   0.9604469999999991    0.6578680000000000    0.9252680000000000 As
   0.5395529999999999    0.6578680000000000    0.4252680000000000 As
   0.0395530000000000    0.3421320000000000    0.0747319999999990 As
   0.9902139999999990    0.3524470000000000    0.5576090000000000 As
   0.4902140000000000    0.6475529999999990    0.9423910000000000 As
   0.0097860000000000    0.6475529999999990    0.4423910000000000 As
   0.5097860000000000    0.3524470000000000    0.0576090000000000 As
   0.1384860000000000    0.3370660000000000    0.9475950000000000 As
   0.6384860000000000    0.6629340000000000    0.5524049999999990 As
   0.8615140000000000    0.6629340000000000    0.0524050000000000 As
   0.3615140000000000    0.3370660000000000    0.4475949999999990 As
   0.0803800000000000    0.1648460000000000    0.0161720000000000 As
   0.5803800000000000    0.8351540000000000    0.4838280000000000 As
   0.9196200000000001    0.8351540000000000    0.9838279999999990 As
   0.4196200000000000    0.1648460000000000    0.5161720000000000 As
   0.4061120000000000    0.3304370000000000    0.9344850000000000 As
   0.9061119999999990    0.6695630000000000    0.5655150000000000 As
   0.5938880000000000    0.6695630000000000    0.0655150000000000 As
   0.0938880000000000    0.3304370000000000    0.4344849999999990 As
   0.4673429999999990    0.1675829999999990    0.0139040000000000 As
   0.9673430000000000    0.8324170000000000    0.4860960000000000 As
   0.5326569999999990    0.8324170000000000    0.9860960000000000 As
   0.0326570000000000    0.1675829999999990    0.5139040000000000 As
   0.7320580000000000    0.1361190000000000    0.6367389999999991 P
   0.2320580000000000    0.8638810000000000    0.8632609999999999 P
   0.2679420000000000    0.8638810000000000    0.3632610000000000 P
   0.7679420000000000    0.1361190000000000    0.1367390000000000 P
   0.9065559999999990    0.2920180000000000    0.8996489999999990 P
   0.4065560000000000    0.7079820000000000    0.6003510000000000 P
   0.0934440000000000    0.7079820000000000    0.1003510000000000 P
   0.5934440000000000    0.2920180000000000    0.3996490000000000 P
   0.6359910000000000    0.2792100000000000    0.8833820000000000 P
   0.1359910000000000    0.7207900000000000    0.6166180000000000 P
   0.3640089999999990    0.7207900000000000    0.1166180000000000 P
   0.8640089999999990    0.2792100000000000    0.3833820000000000 P
   0.7752009999999990    0.9936959999999990    0.5836319999999990 S
   0.2752010000000000    0.0063040000000000    0.9163680000000000 S
   0.2247990000000000    0.0063040000000000    0.4163679999999990 S
   0.7247990000000000    0.9936959999999990    0.0836320000000000 S
   0.8219240000000000    0.1336560000000000    0.7418030000000000 S
   0.3219240000000000    0.8663440000000000    0.7581970000000000 S
   0.1780759999999990    0.8663440000000000    0.2581970000000000 S
   0.6780760000000000    0.1336560000000000    0.2418030000000000 S
   0.5996349999999990    0.0979080000000000    0.6870539999999991 S
   0.0996350000000000    0.9020920000000000    0.8129459999999999 S
   0.4003649999999990    0.9020920000000000    0.3129460000000000 S
   0.9003650000000000    0.0979080000000000    0.1870540000000000 S
   0.6040120000000000    0.3728849999999990    0.5117119999999999 S
   0.1040120000000000    0.6271150000000000    0.9882879999999991 S
   0.3959880000000000    0.6271150000000000    0.4882880000000000 S
   0.8959880000000000    0.3728849999999990    0.0117120000000000 S
   0.8499260000000000    0.3742100000000000    0.4883730000000000 S
   0.3499259999999990    0.6257900000000001    0.0116270000000000 S
   0.1500739999999990    0.6257900000000001    0.5116269999999991 S
   0.6500739999999990    0.3742100000000000    0.9883729999999999 S
   0.0270450000000000    0.3638980000000000    0.8479400000000000 S
   0.5270450000000000    0.6361019999999999    0.6520600000000001 S
   0.9729549999999991    0.6361019999999999    0.1520600000000000 S
   0.4729549999999990    0.3638980000000000    0.3479400000000000 S
   0.9494700000000000    0.1375249999999990    0.9393840000000000 S
   0.4494700000000000    0.8624750000000000    0.5606160000000000 S
   0.0505300000000000    0.8624750000000000    0.0606159999999990 S
   0.5505300000000001    0.1375249999999990    0.4393840000000000 S
   0.5133440000000000    0.3459350000000000    0.8306779999999990 S
   0.0133440000000000    0.6540650000000000    0.6693220000000000 S
   0.4866560000000000    0.6540650000000000    0.1693220000000000 S
   0.9866560000000000    0.3459350000000000    0.3306779999999990 S
   0.5942000000000001    0.1301870000000000    0.9344209999999999 S
   0.0942000000000000    0.8698129999999999    0.5655789999999991 S
   0.4058000000000000    0.8698129999999999    0.0655790000000000 S
   0.9058000000000000    0.1301870000000000    0.4344210000000000 S
   0.7671220000000000    0.4345770000000000    0.7005169999999999 I
   0.2671219999999990    0.5654230000000000    0.7994829999999991 I
   0.2328780000000000    0.5654230000000000    0.2994830000000000 I
   0.7328779999999990    0.4345770000000000    0.2005170000000000 I
   0.7780570000000000    0.7194389999999991    0.3755159999999990 I
   0.2780570000000000    0.2805610000000000    0.1244840000000000 I
   0.2219430000000000    0.2805610000000000    0.6244839999999990 I
   0.7219430000000000    0.7194389999999991    0.8755160000000000 I
