In10 Bi6 S24
1.0
   1.9606150000000000   16.7585920000000002    0.0000000000000000
  -1.9606150000000000   16.7585920000000002    0.0000000000000000
   0.0000000000000000    0.1466690000000000   14.5652369999999998
In Bi S
10 6 24
direct
   0.0000000000000000    0.0000000000000000    0.0000000000000000 In
   0.0000000000000000    0.0000000000000000    0.5000000000000000 In
   0.2167720000000000    0.2167720000000000    0.5822480000000000 In
   0.7832279999999990    0.7832279999999990    0.4177519999999990 In
   0.4023640000000000    0.4023640000000000    0.4964550000000000 In
   0.5976359999999999    0.5976359999999999    0.5035450000000000 In
   0.6734220000000000    0.6734220000000000    0.7802819999999990 In
   0.3265780000000000    0.3265780000000000    0.2197180000000000 In
   0.9283819999999990    0.9283819999999990    0.7218380000000000 In
   0.0716180000000000    0.0716180000000000    0.2781619999999990 In
   0.1349610000000000    0.1349610000000000    0.0146659999999990 Bi
   0.8650390000000000    0.8650390000000000    0.9853339999999990 Bi
   0.3197959999999990    0.3197959999999990    0.7328020000000000 Bi
   0.6802039999999990    0.6802039999999990    0.2671980000000000 Bi
   0.5528510000000000    0.5528510000000000    0.7900650000000000 Bi
   0.4471489999999990    0.4471489999999990    0.2099349999999990 Bi
   0.9940239999999991    0.9940239999999991    0.8183589999999999 S
   0.0059759999999990    0.0059759999999990    0.1816410000000000 S
   0.0621139999999990    0.0621139999999990    0.5985840000000000 S
   0.9378860000000000    0.9378860000000000    0.4014160000000000 S
   0.1144120000000000    0.1144120000000000    0.8191189999999990 S
   0.8855879999999990    0.8855879999999990    0.1808810000000000 S
   0.2220929999999990    0.2220929999999990    0.7609200000000000 S
   0.7779070000000000    0.7779070000000000    0.2390800000000000 S
   0.3950110000000000    0.3950110000000000    0.8128989999999990 S
   0.6049890000000000    0.6049890000000000    0.1871010000000000 S
   0.4654330000000000    0.4654330000000000    0.6063459999999991 S
   0.5345670000000000    0.5345670000000000    0.3936540000000000 S
   0.5531330000000000    0.5531330000000000    0.9729049999999990 S
   0.4468669999999990    0.4468669999999990    0.0270949999999990 S
   0.6619520000000000    0.6619520000000000    0.6018089999999990 S
   0.3380479999999990    0.3380479999999990    0.3981909999999990 S
   0.8046740000000000    0.8046740000000000    0.8522430000000000 S
   0.1953260000000000    0.1953260000000000    0.1477570000000000 S
   0.8732590000000000    0.8732590000000000    0.6044800000000000 S
   0.1267410000000000    0.1267410000000000    0.3955200000000000 S
   0.7720129999999999    0.7720129999999999    0.5911569999999990 S
   0.2279870000000000    0.2279870000000000    0.4088429999999990 S
   0.6826080000000000    0.6826080000000000    0.9584440000000000 S
   0.3173920000000000    0.3173920000000000    0.0415559999999990 S
