Ag64 Hg4 As16 S60
1.0
 -13.2139554799999992   -7.6546505400000004    0.1450781000000000
 -13.2139554799999992    7.6546505400000004    0.1450781000000000
   0.0391377600000000   -0.0000000000000000  -15.9570545399999997
Ag Hg As S
64 4 16 60
direct
   0.4865627999999990    0.9490631300000000    0.5860121900000000 Ag
   0.0509368700000000    0.5134371999999990    0.4139878100000000 Ag
   0.6807817900000001    0.9820986300000000    0.5886147200000000 Ag
   0.0179013700000000    0.3192182100000000    0.4113852800000000 Ag
   0.2029869200000000    0.9510252500000000    0.5875356700000001 Ag
   0.0489747500000000    0.7970130800000000    0.4124643300000000 Ag
   0.0927202200000000    0.6452916000000000    0.7854940600000000 Ag
   0.3547084000000000    0.9072797800000000    0.2145059400000000 Ag
   0.5819504999999990    0.6499358500000000    0.8040013400000000 Ag
   0.3500641500000000    0.4180494999999990    0.1959986600000000 Ag
   0.6189429800000000    0.0167907800000000    0.0016608800000000 Ag
   0.9832092200000000    0.3810570200000000    0.9983391200000000 Ag
   0.3787408800000000    0.1500583400000000    0.8016625900000001 Ag
   0.8499416600000000    0.6212591200000001    0.1983374100000000 Ag
   0.8009919500000000    0.7916393200000000    0.4016277200000000 Ag
   0.2083606800000000    0.1990080500000000    0.5983722800000000 Ag
   0.0789723900000000    0.1532339999999990    0.8073276800000000 Ag
   0.8467659999999990    0.9210276100000000    0.1926723200000000 Ag
   0.1143934200000000    0.7547545900000000    0.9989499400000000 Ag
   0.2452454100000000    0.8856065800000000    0.0010500600000000 Ag
   0.0082812300000000    0.9917187700000000   -0.0000000000000000 Ag
   0.6498389800000001    0.1173494800000000    0.2056341400000000 Ag
   0.8826505200000000    0.3501610200000000    0.7943658600000000 Ag
   0.1825255200000000    0.7566846800000000    0.5866403300000000 Ag
   0.2433153200000000    0.8174744800000000    0.4133596700000000 Ag
   0.4770870800000000    0.8847079100000000    0.0001170100000000 Ag
   0.1152920900000000    0.5229129200000000    0.9998829900000000 Ag
   0.3389497100000000    0.6610502900000000   -0.0000000000000000 Ag
   0.6033313100000001    0.2481883400000000    0.9977635600000000 Ag
   0.7518116600000000    0.3966686900000000    0.0022364400000000 Ag
   0.5368030700000000    0.0217500700000000    0.4154198400000000 Ag
   0.9782499300000000    0.4631969300000000    0.5845801600000000 Ag
   0.3849709800000000    0.6485195200000000    0.8073186100000000 Ag
   0.3514804800000000    0.6150290200000000    0.1926813900000000 Ag
   0.7074220999999991    0.7930961400000001    0.9987985900000000 Ag
   0.2069038600000000    0.2925779000000000    0.0012014100000000 Ag
   0.6830682300000001    0.2611479900000000    0.5863733200000000 Ag
   0.7388520100000000    0.3169317700000000    0.4136266800000000 Ag
   0.8537276800000000    0.1156330300000000    0.2011813700000000 Ag
   0.8843669700000000    0.1462723200000000    0.7988186300000000 Ag
   0.5547244300000000    0.2925840800000000    0.4145357999999990 Ag
   0.7074159200000000    0.4452755700000000    0.5854642000000000 Ag
   0.3857833000000000    0.3429963100000000    0.8033061200000000 Ag
   0.6570036900000000    0.6142166999999999    0.1966938800000000 Ag
   0.5268261100000000    0.8286475100000000    0.4147433400000000 Ag
   0.1713524900000000    0.4731738900000000    0.5852566600000000 Ag
   0.3786743900000000    0.8568146300000000    0.7897880200000000 Ag
   0.1431853700000000    0.6213256100000000    0.2102119800000000 Ag
   0.8870460100000001    0.8418766800000000    0.8068526500000001 Ag
   0.1581233200000000    0.1129539900000000    0.1931473500000000 Ag
   0.9298526500000001    0.9754153300000000    0.5948393400000000 Ag
   0.0245846700000000    0.0701473500000000    0.4051606600000000 Ag
   0.4259638900000000    0.4763142700000000    0.5953497000000000 Ag
   0.5236857300000000    0.5740361100000000    0.4046502999999990 Ag
   0.3986763300000000    0.1031475700000000    0.9985247700000001 Ag
   0.8968524300000000    0.6013236700000000    0.0014752300000000 Ag
   0.5889376500000000    0.1468567400000000    0.7917150200000000 Ag
   0.8531432600000001    0.4110623500000000    0.2082849800000000 Ag
   0.6899715400000000    0.7135078100000000    0.5940518500000000 Ag
   0.2864921900000000    0.3100284600000000    0.4059481500000000 Ag
   0.8811209400000000    0.6509321700000000    0.8030606200000000 Ag
   0.3490678300000000    0.1188790600000000    0.1969393800000000 Ag
   0.5290038200000000    0.4709961800000000   -0.0000000000000000 Ag
   0.8152308600000000    0.1847691400000000   -0.0000000000000000 Ag
   0.8676444000000000    0.8839581500000000    0.0006332800000000 Hg
   0.1160418500000000    0.1323556000000000    0.9993667200000000 Hg
   0.3591995900000000    0.3868590100000000    0.0012923600000000 Hg
   0.6131409900000000    0.6408004100000000    0.9987076400000000 Hg
   0.4485952200000000    0.7100407100000000    0.5756253500000000 As
   0.2899592900000000    0.5514047800000000    0.4243746500000000 As
   0.4404157700000000    0.2249771800000000    0.5741074200000000 As
   0.7750228200000000    0.5595842300000000    0.4258925800000000 As
   0.7854762800000000    0.0447075300000000    0.4249445800000000 As
   0.9552924700000001    0.2145237200000000    0.5750554200000000 As
   0.6069657100000000    0.8914954600000000    0.7882386500000000 As
   0.1085045400000000    0.3930342900000000    0.2117613500000000 As
   0.1094071700000000    0.3920344000000000    0.7883077500000000 As
   0.6079656000000000    0.8905928300000000    0.2116922500000000 As
   0.1195081200000000    0.8793199500000001    0.7888558900000000 As
   0.1206800500000000    0.8804918800000000    0.2111441100000000 As
   0.6235121800000000    0.3772262500000000    0.2111915100000000 As
   0.6227737500000000    0.3764878200000000    0.7888084900000000 As
   0.2726001900000000    0.0656264700000000    0.4250953999999990 As
   0.9343735300000000    0.7273998100000000    0.5749046000000000 As
   0.6301272800000001    0.1152914800000000    0.3632787700000000 S
   0.8847085200000000    0.3698727200000000    0.6367212300000000 S
   0.0833943100000000    0.9166056900000000    0.5000000000000000 S
   0.5964082400000000    0.1611045600000000    0.6348150700000000 S
   0.8388954400000000    0.4035917600000000    0.3651849300000000 S
   0.5472251900000000    0.2985422200000000    0.1467014800000000 S
   0.7014577800000000    0.4527748100000000    0.8532985200000001 S
   0.8602188000000000    0.8728217500000001    0.6524496500000000 S
   0.1271782500000000    0.1397812000000000    0.3475503500000000 S
   0.1830630200000000    0.4723745500000000    0.8543731000000000 S
   0.5276254500000001    0.8169369800000000    0.1456269000000000 S
   0.6900316800000000    0.7394463300000000    0.8543228200000000 S
   0.2605536700000000    0.3099683200000000    0.1456771800000000 S
   0.2007893300000000    0.9517375700000000    0.8554656100000000 S
   0.0482624300000000    0.7992106700000000    0.1445343900000000 S
   0.3828334600000000    0.8681378500000000    0.6330859600000001 S
   0.1318621500000000    0.6171665400000000    0.3669140400000000 S
   0.9582513300000001    0.4613716600000000    0.8556774900000000 S
   0.5386283400000000    0.0417486700000000    0.1443225100000000 S
   0.3580418500000000    0.6547592700000000    0.6494243600000000 S
   0.3452407300000000    0.6419581500000000    0.3505756400000000 S
   0.6949270100000000    0.2255669400000000    0.8568144200000000 S
   0.7744330600000000    0.3050729900000000    0.1431855800000000 S
   0.9476498300000000    0.2243730800000000    0.9346503600000000 S
   0.7756269200000000    0.0523501700000000    0.0653496400000000 S
   0.4448299200000000    0.7272325200000000    0.9335443800000001 S
   0.2727674800000000    0.5551700800000000    0.0664556200000000 S
   0.1921184600000000    0.2404035700000000    0.8558264300000000 S
   0.7595964300000000    0.8078815400000000    0.1441735700000000 S
   0.4561406700000000    0.9613532200000000    0.8561908300000001 S
   0.0386467800000000    0.5438593300000000    0.1438091700000000 S
   0.6489362200000001    0.8625100200000000    0.4993737500000000 S
   0.1374899800000000    0.3510637800000000    0.5006262500000001 S
   0.3877507000000000    0.1292026700000000    0.6437410000000000 S
   0.8707973300000000    0.6122493000000000    0.3562590000000000 S
   0.3546424600000000    0.3724141700000000    0.6485344500000000 S
   0.6275858300000000    0.6453575400000000    0.3514655500000000 S
   0.5982800200000000    0.6297283100000000    0.6470608300000000 S
   0.3702716900000000    0.4017199800000000    0.3529391700000000 S
   0.8441159700000000    0.1378709200000000    0.3591212700000000 S
   0.8621290800000000    0.1558840300000000    0.6408787300000001 S
   0.5786103200000000    0.4213896800000000    0.5000000000000000 S
   0.0943447600000000    0.6544854700000000    0.6288528400000000 S
   0.3455145300000000    0.9056552400000000    0.3711471600000000 S
   0.3614203200000000    0.1260467700000000    0.3558903000000000 S
   0.8739532300000000    0.6385796800000000    0.6441097000000000 S
   0.4713517400000000    0.4574045400000000    0.8558556300000000 S
   0.5425954600000000    0.5286482600000000    0.1441443700000000 S
   0.6821197200000000    0.9702007200000000    0.8551576700000000 S
   0.0297992800000000    0.3178802800000000    0.1448423300000000 S
   0.9542513600000000    0.7159450100000000    0.9345517700000000 S
   0.2840549900000000    0.0457486400000000    0.0654482300000000 S
   0.1895949400000000    0.7281230700000000    0.8558908800000000 S
   0.2718769300000000    0.8104050600000000    0.1441091200000000 S
   0.8683897200000000    0.8988159500000000    0.3484835500000000 S
   0.1011840500000000    0.1316102800000000    0.6515164500000000 S
   0.4530657600000000    0.2203906200000000    0.9337776700000000 S
   0.7796093800000000    0.5469342400000000    0.0662223300000000 S
   0.9670001500000001    0.9619691100000001    0.8546441600000000 S
   0.0380308900000000    0.0329998500000000    0.1453558400000000 S
