Cs4 Bi12 S20
1.0
   4.0871689900000003   -0.0000000000000000    0.0000000000000000
  -0.0000000000000000   12.2286919300000001    0.0000000000000000
   0.0000000000000000    0.0000000000000000   21.3090761200000003
Cs Bi S
4 12 20
direct
   0.7500000000000000    0.0042915100000000    0.8885455000000000 Cs
   0.2500000000000000    0.9957084900000001    0.1114545000000000 Cs
   0.7500000000000000    0.5042915100000001    0.6114545000000000 Cs
   0.2500000000000000    0.4957084900000000    0.3885455000000000 Cs
   0.2500000000000000    0.8709046500000001    0.6465143200000000 Bi
   0.7500000000000000    0.1290953500000000    0.3534856800000000 Bi
   0.2500000000000000    0.3709046500000000    0.8534856800000000 Bi
   0.7500000000000000    0.6290953500000001    0.1465143200000000 Bi
   0.2500000000000000    0.6647783900000001    0.9743452900000000 Bi
   0.7500000000000000    0.3352216100000000    0.0256547100000000 Bi
   0.2500000000000000    0.1647783900000000    0.5256547100000000 Bi
   0.7500000000000000    0.8352216100000001    0.4743452900000000 Bi
   0.7500000000000000    0.6466337300000000    0.8081649300000000 Bi
   0.2500000000000000    0.3533662700000000    0.1918350700000000 Bi
   0.7500000000000000    0.1466337300000000    0.6918350700000000 Bi
   0.2500000000000000    0.8533662700000000    0.3081649300000000 Bi
   0.2500000000000000    0.7196703700000000    0.5274628000000000 S
   0.7500000000000000    0.2803296300000000    0.4725372000000000 S
   0.2500000000000000    0.2196703700000000    0.9725372000000000 S
   0.7500000000000000    0.7803296300000000    0.0274628000000000 S
   0.2500000000000000    0.0142198100000000    0.7408352200000000 S
   0.7500000000000000    0.9857801900000001    0.2591647800000000 S
   0.2500000000000000    0.5142198100000001    0.7591647800000000 S
   0.7500000000000000    0.4857801900000000    0.2408352200000000 S
   0.2500000000000000    0.9885778000000000    0.4167698200000000 S
   0.7500000000000000    0.0114221999999990    0.5832301800000000 S
   0.2500000000000000    0.4885777999999991    0.0832301800000000 S
   0.7500000000000000    0.5114221999999990    0.9167698200000001 S
   0.2500000000000000    0.7491506900000000    0.1922710700000000 S
   0.7500000000000000    0.2508493100000000    0.8077289300000000 S
   0.2500000000000000    0.2491506900000000    0.3077289300000000 S
   0.7500000000000000    0.7508493100000000    0.6922710700000000 S
   0.7500000000000000    0.7266568700000000    0.3682614400000000 S
   0.2500000000000000    0.2733431300000000    0.6317385600000001 S
   0.7500000000000000    0.2266568700000000    0.1317385600000000 S
   0.2500000000000000    0.7733431300000000    0.8682614400000001 S
