In5 Sn1 Sb3 Te1
1.0
   6.6807489999999996    0.0000000000000000    0.0000000000000000
   3.3393649999999999    7.4481450000000002    0.0000000000000000
   3.3362729999999998    0.0223430000000000    7.4634650000000002
In Sn Sb Te
5 1 3 1
direct
   0.9973940000000000    0.0036700000000000    0.9981359999999990 In
   0.4043339999999990    0.8092830000000000    0.3962159999999990 In
   0.7868510000000000    0.5988559999999991    0.8102509999999991 In
   0.2056750000000000    0.3944490000000000    0.1873429999999990 In
   0.6092460000000000    0.1931149999999990    0.6080400000000000 In
   0.6525040000000000    0.2984500000000000    0.9006109999999991 Sn
   0.0451120000000000    0.0995590000000000    0.2995400000000000 Sb
   0.4483620000000000    0.8994930000000000    0.7005930000000000 Sb
   0.8524119999999999    0.7013030000000000    0.1001180000000000 Sb
   0.2481100000000000    0.5018210000000000    0.4991520000000000 Te
