Ag2 Sb6 Pb2 S12
1.0
   0.0000000000000000    0.0000000000000000    5.4632589999999999
  10.7196020000000001    7.3765400000000003    0.0000000000000000
  -9.9978300000000004    6.2048300000000003    0.0000000000000000
Ag Sb Pb S
2 6 2 12
direct
   0.3842850000000000    0.9435239999999990    0.2564700000000000 Ag
   0.6157150000000000    0.4435240000000000    0.7564700000000001 Ag
   0.6383380000000000    0.7032430000000000    0.0443029999999990 Sb
   0.7119369999999990    0.7724759999999991    0.4990100000000001 Sb
   0.2809700000000000    0.5495000000000000    0.2443310000000000 Sb
   0.7190300000000001    0.0495000000000000    0.7443310000000000 Sb
   0.2880630000000000    0.2724760000000000    0.9990100000000001 Sb
   0.3616620000000000    0.2032429999999990    0.5443030000000000 Sb
   0.6628100000000000    0.2556600000000000    0.2870860000000000 Pb
   0.3371900000000000    0.7556600000000001    0.7870860000000000 Pb
   0.5408400000000000    0.1022589999999990    0.9556119999999991 S
   0.5195100000000000    0.3735710000000000    0.5308840000000000 S
   0.4804900000000000    0.8735710000000000    0.0308839999999990 S
   0.4591600000000000    0.6022590000000000    0.4556119999999990 S
   0.1920820000000000    0.2901849999999990    0.2099490000000000 S
   0.8079179999999990    0.7901849999999990    0.7099489999999991 S
   0.5926310000000000    0.4328660000000000    0.0909600000000000 S
   0.4073690000000000    0.9328660000000000    0.5909600000000000 S
   0.3481340000000000    0.5891040000000000    0.8876060000000000 S
   0.6518659999999999    0.0891040000000000    0.3876060000000000 S
   0.4114400000000000    0.7376119999999990    0.2437879999999990 S
   0.5885600000000001    0.2376120000000000    0.7437880000000000 S
