Ba12 As8 H56 S32 O28
1.0
  12.9062520000000003    0.0000000000000000    0.0000000000000000
   0.0000000000000000   12.7545549999999999    0.0000000000000000
   0.0000000000000000   10.9207409999999996   12.7814789999999991
Ba As H S O
12 8 56 32 28
direct
   0.7637240000000000    0.0431820000000000    0.6233200000000001 Ba
   0.7362759999999990    0.0431820000000000    0.1233200000000000 Ba
   0.2362759999999990    0.9568179999999999    0.3766800000000000 Ba
   0.2637240000000000    0.9568179999999999    0.8766800000000001 Ba
   0.6195649999999990    0.6738120000000000    0.0672720000000000 Ba
   0.8804350000000000    0.6738120000000000    0.5672720000000000 Ba
   0.3804349999999990    0.3261880000000000    0.9327280000000000 Ba
   0.1195649999999990    0.3261880000000000    0.4327280000000000 Ba
   0.9770230000000000    0.6942429999999991    0.0968000000000000 Ba
   0.5229770000000000    0.6942429999999991    0.5968000000000000 Ba
   0.0229769999999990    0.3057570000000000    0.9032000000000000 Ba
   0.4770230000000000    0.3057570000000000    0.4032000000000000 Ba
   0.7468540000000000    0.5356520000000000    0.3630290000000000 As
   0.7531460000000000    0.5356520000000000    0.8630289999999990 As
   0.2531460000000000    0.4643480000000000    0.6369710000000000 As
   0.2468540000000000    0.4643480000000000    0.1369709999999990 As
   0.7584879999999991    0.0376180000000000    0.8743630000000000 As
   0.7415119999999999    0.0376180000000000    0.3743630000000000 As
   0.2415119999999990    0.9623820000000000    0.1256370000000000 As
   0.2584880000000000    0.9623820000000000    0.6256370000000000 As
   0.5075550000000000    0.9143490000000000    0.6806530000000000 H
   0.9924449999999990    0.9143490000000000    0.1806529999999990 H
   0.4924449999999990    0.0856509999999990    0.3193470000000000 H
   0.0075550000000000    0.0856509999999990    0.8193469999999990 H
   0.5930700000000001    0.8080480000000000    0.7551089999999990 H
   0.9069300000000001    0.8080480000000000    0.2551090000000000 H
   0.4069300000000000    0.1919519999999990    0.2448910000000000 H
   0.0930700000000000    0.1919519999999990    0.7448910000000000 H
   0.0043130000000000    0.9094089999999990    0.6721549999999999 H
   0.4956870000000000    0.9094089999999990    0.1721550000000000 H
   0.9956870000000000    0.0905909999999990    0.3278450000000000 H
   0.5043130000000000    0.0905909999999990    0.8278449999999991 H
   0.9329839999999990    0.7939809999999990    0.7696210000000000 H
   0.5670160000000000    0.7939809999999990    0.2696210000000000 H
   0.0670159999999990    0.2060189999999990    0.2303790000000000 H
   0.4329840000000000    0.2060189999999990    0.7303790000000000 H
   0.4189940000000000    0.7118490000000000    0.9399609999999990 H
   0.0810060000000000    0.7118490000000000    0.4399610000000000 H
   0.5810060000000000    0.2881510000000000    0.0600389999999990 H
   0.9189940000000000    0.2881510000000000    0.5600390000000000 H
   0.4866560000000000    0.8402390000000000    0.8533780000000000 H
   0.0133440000000000    0.8402390000000000    0.3533779999999990 H
   0.5133440000000000    0.1597610000000000    0.1466220000000000 H
   0.9866560000000000    0.1597610000000000    0.6466219999999990 H
   0.0993690000000000    0.7338110000000000    0.9131429999999990 H
   0.4006309999999990    0.7338110000000000    0.4131430000000000 H
   0.9006310000000000    0.2661890000000000    0.0868569999999990 H
   0.5993689999999990    0.2661890000000000    0.5868570000000000 H
   0.0276040000000000    0.8599500000000001    0.8399030000000000 H
   0.4723960000000000    0.8599500000000001    0.3399030000000000 H
   0.9723959999999990    0.1400500000000000    0.1600970000000000 H
   0.5276040000000000    0.1400500000000000    0.6600969999999990 H
   0.4947590000000000    0.4009890000000000    0.1643939999999990 H
   0.0052410000000000    0.4009890000000000    0.6643939999999990 H
   0.5052409999999991    0.5990110000000000    0.8356060000000000 H
   0.9947589999999999    0.5990110000000000    0.3356059999999990 H
   0.6036850000000000    0.3269320000000000    0.2174660000000000 H
   0.8963150000000000    0.3269320000000000    0.7174659999999990 H
   0.3963150000000000    0.6730680000000000    0.7825340000000000 H
   0.1036850000000000    0.6730680000000000    0.2825340000000000 H
   0.9920430000000000    0.3634810000000000    0.2424710000000000 H
   0.5079570000000000    0.3634810000000000    0.7424710000000000 H
   0.0079569999999990    0.6365189999999999    0.7575290000000000 H
   0.4920429999999991    0.6365189999999999    0.2575290000000000 H
   0.9017039999999999    0.3544150000000000    0.3125370000000000 H
   0.5982959999999991    0.3544150000000000    0.8125370000000000 H
   0.0982960000000000    0.6455850000000000    0.6874629999999990 H
   0.4017040000000000    0.6455850000000000    0.1874630000000000 H
   0.8263570000000000    0.5471290000000000    0.0411819999999990 H
   0.6736430000000000    0.5471290000000000    0.5411819999999991 H
   0.1736430000000000    0.4528709999999990    0.9588179999999999 H
   0.3263570000000000    0.4528709999999990    0.4588180000000000 H
   0.7983490000000000    0.4375070000000000    0.1590180000000000 H
   0.7016509999999990    0.4375070000000000    0.6590180000000000 H
   0.2016510000000000    0.5624930000000000    0.8409820000000000 H
   0.2983490000000000    0.5624930000000000    0.3409820000000000 H
   0.7400949999999999    0.3540800000000000    0.3753700000000000 S
   0.7599049999999991    0.3540800000000000    0.8753700000000001 S
   0.2599050000000000    0.6459200000000000    0.6246300000000000 S
   0.2400950000000000    0.6459200000000000    0.1246300000000000 S
   0.7708800000000000    0.7240209999999990    0.1991220000000000 S
   0.7291200000000001    0.7240209999999990    0.6991220000000000 S
   0.2291200000000000    0.2759790000000000    0.8008780000000000 S
   0.2708800000000000    0.2759790000000000    0.3008780000000000 S
   0.5963609999999990    0.5526110000000000    0.4149440000000000 S
   0.9036390000000000    0.5526110000000000    0.9149440000000000 S
   0.4036389999999990    0.4473890000000000    0.5850560000000000 S
   0.0963610000000000    0.4473890000000000    0.0850559999999990 S
   0.8759340000000000    0.5225150000000000    0.4541779999999990 S
   0.6240660000000000    0.5225150000000000    0.9541780000000000 S
   0.1240660000000000    0.4774850000000000    0.5458220000000000 S
   0.3759340000000000    0.4774850000000000    0.0458219999999990 S
   0.7813990000000000    0.8617060000000000    0.8816489999999990 S
   0.7186009999999990    0.8617060000000000    0.3816489999999990 S
   0.2186010000000000    0.1382940000000000    0.1183510000000000 S
   0.2813990000000000    0.1382940000000000    0.6183510000000000 S
   0.7591000000000000    0.2274530000000000    0.7105190000000000 S
   0.7409000000000000    0.2274530000000000    0.2105189999999990 S
   0.2409000000000000    0.7725470000000000    0.2894810000000000 S
   0.2591000000000000    0.7725470000000000    0.7894810000000000 S
   0.6169230000000000    0.0116320000000000    0.9573309999999990 S
   0.8830770000000000    0.0116320000000000    0.4573310000000000 S
   0.3830770000000000    0.9883679999999990    0.0426690000000000 S
   0.1169230000000000    0.9883679999999990    0.5426690000000000 S
   0.8925609999999990    0.0323700000000000    0.9585680000000000 S
   0.6074390000000000    0.0323700000000000    0.4585680000000000 S
   0.1074389999999990    0.9676300000000001    0.0414320000000000 S
   0.3925610000000000    0.9676300000000001    0.5414320000000000 S
   0.5573790000000000    0.8909929999999990    0.7346330000000000 O
   0.9426209999999990    0.8909929999999990    0.2346329999999990 O
   0.4426210000000000    0.1090069999999990    0.2653669999999990 O
   0.0573790000000000    0.1090069999999990    0.7653670000000000 O
   0.9530780000000000    0.8922129999999990    0.7240219999999991 O
   0.5469220000000000    0.8922129999999990    0.2240220000000000 O
   0.0469220000000000    0.1077870000000000    0.2759780000000000 O
   0.4530780000000000    0.1077870000000000    0.7759779999999999 O
   0.4529769999999990    0.7945260000000000    0.9222250000000000 O
   0.0470229999999990    0.7945260000000000    0.4222249999999990 O
   0.5470229999999990    0.2054740000000000    0.0777750000000000 O
   0.9529770000000000    0.2054740000000000    0.5777749999999990 O
   0.0694429999999990    0.8112739999999991    0.9046339999999990 O
   0.4305569999999990    0.8112739999999991    0.4046340000000000 O
   0.9305570000000000    0.1887260000000000    0.0953659999999990 O
   0.5694429999999990    0.1887260000000000    0.5953660000000000 O
   0.5496989999999990    0.3867220000000000    0.2127339999999990 O
   0.9503010000000000    0.3867220000000000    0.7127340000000000 O
   0.4503010000000000    0.6132780000000000    0.7872659999999990 O
   0.0496990000000000    0.6132780000000000    0.2872659999999990 O
   0.9731449999999990    0.3883319999999990    0.2850300000000000 O
   0.5268550000000000    0.3883319999999990    0.7850300000000001 O
   0.0268550000000000    0.6116680000000000    0.7149700000000001 O
   0.4731450000000000    0.6116680000000000    0.2149700000000000 O
   0.8100140000000000    0.5381920000000000    0.1031110000000000 O
   0.6899860000000000    0.5381920000000000    0.6031110000000000 O
   0.1899860000000000    0.4618080000000000    0.8968889999999990 O
   0.3100140000000000    0.4618080000000000    0.3968890000000000 O
