Sb4 P4 C12 S12 N12 Cl12 O4
1.0
  -7.2566269999999999    7.2566269999999999    7.2566269999999999
   7.2566269999999999   -7.2566269999999999    7.2566269999999999
   7.2566269999999999    7.2566269999999999   -7.2566269999999999
Sb P C S N Cl O
4 4 12 12 12 12 4
direct
   0.2141700000000000    0.0000000000000000    0.0000000000000000 Sb
   0.0000000000000000    0.0000000000000000    0.2141700000000000 Sb
   0.7858300000000000    0.7858300000000000    0.7858300000000000 Sb
   0.0000000000000000    0.2141700000000000    0.0000000000000000 Sb
   0.6535650000000000    0.0000000000000000    0.0000000000000000 P
   0.0000000000000000    0.6535650000000000    0.0000000000000000 P
   0.3464350000000000    0.3464350000000000    0.3464350000000000 P
   0.0000000000000000    0.0000000000000000    0.6535650000000000 P
   0.4899940000000000    0.0000000000000000    0.7815420000000000 C
   0.5100060000000000    0.5100060000000000    0.2915480000000000 C
   0.5100060000000000    0.2915480000000000    0.5100060000000000 C
   0.7815420000000000    0.4899940000000000    0.0000000000000000 C
   0.0000000000000000    0.4899940000000000    0.7815420000000000 C
   0.0000000000000000    0.7815420000000000    0.4899940000000000 C
   0.7815420000000000    0.0000000000000000    0.4899940000000000 C
   0.4899940000000000    0.7815420000000000    0.0000000000000000 C
   0.2184579999999990    0.7084520000000000    0.2184579999999990 C
   0.2915480000000000    0.5100060000000000    0.5100060000000000 C
   0.7084520000000000    0.2184579999999990    0.2184579999999990 C
   0.2184579999999990    0.2184579999999990    0.7084520000000000 C
   0.0000000000000000    0.4008140000000000    0.6611070000000000 S
   0.2602930000000000    0.5991860000000000    0.5991860000000000 S
   0.5991860000000000    0.2602930000000000    0.5991860000000000 S
   0.3388930000000000    0.3388930000000000    0.7397070000000000 S
   0.6611070000000000    0.4008140000000000    0.0000000000000000 S
   0.4008140000000000    0.0000000000000000    0.6611070000000000 S
   0.7397070000000000    0.3388930000000000    0.3388930000000000 S
   0.6611070000000000    0.0000000000000000    0.4008140000000000 S
   0.4008140000000000    0.6611070000000000    0.0000000000000000 S
   0.0000000000000000    0.6611070000000000    0.4008140000000000 S
   0.5991860000000000    0.5991860000000000    0.2602930000000000 S
   0.3388930000000000    0.7397070000000000    0.3388930000000000 S
   0.5598200000000001    0.8749810000000000    0.0000000000000000 N
   0.5598200000000001    0.0000000000000000    0.8749810000000000 N
   0.4401800000000000    0.4401800000000000    0.3151600000000001 N
   0.3151600000000001    0.4401800000000000    0.4401800000000000 N
   0.8749810000000000    0.5598200000000001    0.0000000000000000 N
   0.0000000000000000    0.5598200000000001    0.8749810000000000 N
   0.6848400000000000    0.1250190000000000    0.1250190000000000 N
   0.4401800000000000    0.3151600000000001    0.4401800000000000 N
   0.1250190000000000    0.6848400000000000    0.1250190000000000 N
   0.8749810000000000    0.0000000000000000    0.5598200000000001 N
   0.1250190000000000    0.1250190000000000    0.6848400000000000 N
   0.0000000000000000    0.8749810000000000    0.5598200000000001 N
   0.8279150000000000    0.1986030000000000    0.8279150000000000 Cl
   0.0000000000000000    0.1720850000000000    0.3706870000000000 Cl
   0.1986030000000000    0.8279150000000000    0.8279150000000000 Cl
   0.1720850000000000    0.0000000000000000    0.3706870000000000 Cl
   0.6293130000000000    0.8013969999999990    0.6293130000000000 Cl
   0.3706870000000000    0.0000000000000000    0.1720850000000000 Cl
   0.6293130000000000    0.6293130000000000    0.8013969999999990 Cl
   0.8013969999999990    0.6293130000000000    0.6293130000000000 Cl
   0.3706870000000000    0.1720850000000000    0.0000000000000000 Cl
   0.0000000000000000    0.3706870000000000    0.1720850000000000 Cl
   0.1720850000000000    0.3706870000000000    0.0000000000000000 Cl
   0.8279150000000000    0.8279150000000000    0.1986030000000000 Cl
   0.0000000000000000    0.0000000000000000    0.7719769999999990 O
   0.0000000000000000    0.7719769999999990    0.0000000000000000 O
   0.2280230000000000    0.2280230000000000    0.2280230000000000 O
   0.7719769999999990    0.0000000000000000    0.0000000000000000 O
