Fe4 As8 S16 O32 F48
1.0
  14.0837289999999999    0.0000000000000000    0.0000000000000000
   0.0000000000000000    8.9277909999999991    0.0000000000000000
   0.0000000000000000    2.4740449999999998   15.2606739999999999
Fe As S O F
4 8 16 32 48
direct
   0.8109919999999990    0.7249040000000000    0.7561390000000000 Fe
   0.3109920000000000    0.2750960000000000    0.7438610000000000 Fe
   0.1890079999999990    0.2750960000000000    0.2438610000000000 Fe
   0.6890080000000000    0.7249040000000000    0.2561390000000000 Fe
   0.6456430000000000    0.5339700000000001    0.6082719999999990 As
   0.1456430000000000    0.4660300000000001    0.8917280000000000 As
   0.3543570000000000    0.4660300000000001    0.3917279999999990 As
   0.8543569999999990    0.5339700000000001    0.1082720000000000 As
   0.6120230000000000    0.9098010000000000    0.8682930000000000 As
   0.1120230000000000    0.0901990000000000    0.6317070000000000 As
   0.3879769999999990    0.0901990000000000    0.1317070000000000 As
   0.8879769999999990    0.9098010000000000    0.3682930000000000 As
   0.9748850000000000    0.8753190000000000    0.8928560000000000 S
   0.4748850000000000    0.1246810000000000    0.6071440000000000 S
   0.0251150000000000    0.1246810000000000    0.1071439999999990 S
   0.5251150000000000    0.8753190000000000    0.3928560000000000 S
   0.8282029999999990    0.3409750000000000    0.8428559999999991 S
   0.3282029999999990    0.6590250000000000    0.6571440000000000 S
   0.1717970000000000    0.6590250000000000    0.1571440000000000 S
   0.6717970000000000    0.3409750000000000    0.3428560000000000 S
   0.7989000000000001    0.0788990000000000    0.6104450000000000 S
   0.2989000000000000    0.9211009999999999    0.8895550000000000 S
   0.2011000000000000    0.9211009999999999    0.3895550000000000 S
   0.7011000000000001    0.0788990000000000    0.1104450000000000 S
   0.9705750000000000    0.5933090000000000    0.6044220000000000 S
   0.4705749999999990    0.4066909999999990    0.8955780000000000 S
   0.0294250000000000    0.4066909999999990    0.3955780000000000 S
   0.5294249999999990    0.5933090000000000    0.1044220000000000 S
   0.9222680000000000    0.7911560000000000    0.8344370000000000 O
   0.4222680000000000    0.2088440000000000    0.6655630000000000 O
   0.0777320000000000    0.2088440000000000    0.1655630000000000 O
   0.5777320000000000    0.7911560000000000    0.3344370000000000 O
   0.9339980000000000    0.0158290000000000    0.9090689999999990 O
   0.4339980000000000    0.9841709999999991    0.5909310000000000 O
   0.0660019999999990    0.9841709999999991    0.0909310000000000 O
   0.5660020000000000    0.0158290000000000    0.4090689999999990 O
   0.8104570000000000    0.5040200000000000    0.8382170000000000 O
   0.3104570000000000    0.4959800000000000    0.6617830000000000 O
   0.1895430000000000    0.4959800000000000    0.1617829999999990 O
   0.6895430000000000    0.5040200000000000    0.3382170000000000 O
   0.8576150000000000    0.2902679999999990    0.7633350000000000 O
   0.3576149999999990    0.7097319999999990    0.7366650000000000 O
   0.1423849999999990    0.7097319999999990    0.2366650000000000 O
   0.6423850000000000    0.2902679999999990    0.2633350000000000 O
   0.8118449999999990    0.9462649999999990    0.6783739999999990 O
   0.3118450000000000    0.0537350000000000    0.8216260000000000 O
   0.1881550000000000    0.0537350000000000    0.3216259999999990 O
   0.6881550000000000    0.9462649999999990    0.1783740000000000 O
   0.7088740000000000    0.0942109999999990    0.5658639999999990 O
   0.2088740000000000    0.9057890000000000    0.9341360000000000 O
   0.2911260000000000    0.9057890000000000    0.4341359999999990 O
   0.7911260000000000    0.0942109999999990    0.0658639999999990 O
   0.9221170000000000    0.6536609999999990    0.6752009999999991 O
   0.4221169999999990    0.3463390000000000    0.8247989999999999 O
   0.0778830000000000    0.3463390000000000    0.3247990000000000 O
   0.5778829999999990    0.6536609999999990    0.1752010000000000 O
   0.0707730000000000    0.6226809999999990    0.5950850000000000 O
   0.5707730000000000    0.3773189999999990    0.9049149999999990 O
   0.9292269999999990    0.3773189999999990    0.4049149999999990 O
   0.4292269999999990    0.6226809999999990    0.0950849999999990 O
   0.6413719999999991    0.6986420000000000    0.5284930000000000 F
   0.1413720000000000    0.3013579999999990    0.9715070000000000 F
   0.3586280000000000    0.3013579999999990    0.4715069999999990 F
   0.8586279999999999    0.6986420000000000    0.0284929999999990 F
   0.7038850000000000    0.6532340000000000    0.6828440000000000 F
   0.2038849999999990    0.3467659999999990    0.8171560000000000 F
   0.2961149999999990    0.3467659999999990    0.3171560000000000 F
   0.7961150000000000    0.6532340000000000    0.1828439999999990 F
   0.6532680000000000    0.3791960000000000    0.6942849999999990 F
   0.1532680000000000    0.6208040000000000    0.8057150000000000 F
   0.3467320000000000    0.6208040000000000    0.3057149999999990 F
   0.8467319999999990    0.3791960000000000    0.1942849999999990 F
   0.5358630000000000    0.5843229999999990    0.6500939999999999 F
   0.0358630000000000    0.4156769999999990    0.8499059999999991 F
   0.4641369999999990    0.4156769999999990    0.3499060000000000 F
   0.9641369999999990    0.5843229999999990    0.1500940000000000 F
   0.5921069999999991    0.4228449999999990    0.5380830000000000 F
   0.0921070000000000    0.5771550000000000    0.9619169999999990 F
   0.4078930000000000    0.5771550000000000    0.4619169999999990 F
   0.9078930000000000    0.4228449999999990    0.0380830000000000 F
   0.7603130000000000    0.4928659999999990    0.5731750000000000 F
   0.2603129999999990    0.5071340000000000    0.9268250000000000 F
   0.2396869999999990    0.5071340000000000    0.4268249999999990 F
   0.7396870000000000    0.4928659999999990    0.0731749999999990 F
   0.6406000000000001    0.8625990000000000    0.9809260000000000 F
   0.1406000000000000    0.1374010000000000    0.5190739999999990 F
   0.3594000000000000    0.1374010000000000    0.0190740000000000 F
   0.8594000000000001    0.8625990000000000    0.4809259999999990 F
   0.5357950000000000    0.7507110000000000    0.8790400000000000 F
   0.0357950000000000    0.2492889999999990    0.6209600000000001 F
   0.4642050000000000    0.2492889999999990    0.1209600000000000 F
   0.9642050000000000    0.7507110000000000    0.3790400000000000 F
   0.6946280000000000    0.0597000000000000    0.8579390000000000 F
   0.1946280000000000    0.9403000000000000    0.6420610000000000 F
   0.3053720000000000    0.9403000000000000    0.1420610000000000 F
   0.8053720000000000    0.0597000000000000    0.3579390000000000 F
   0.5188340000000000    0.0283649999999990    0.8905360000000000 F
   0.0188340000000000    0.9716349999999990    0.6094640000000000 F
   0.4811660000000000    0.9716349999999990    0.1094639999999990 F
   0.9811660000000000    0.0283649999999990    0.3905360000000000 F
   0.5892160000000000    0.9479400000000001    0.7544120000000000 F
   0.0892159999999990    0.0520600000000000    0.7455879999999990 F
   0.4107840000000000    0.0520600000000000    0.2455880000000000 F
   0.9107839999999990    0.9479400000000001    0.2544119999999990 F
   0.7093780000000000    0.7841349999999990    0.8451339999999991 F
   0.2093779999999990    0.2158650000000000    0.6548659999999999 F
   0.2906220000000000    0.2158650000000000    0.1548660000000000 F
   0.7906219999999990    0.7841349999999990    0.3451340000000000 F
