Hg4 As12 H48 C16 S24 N4
1.0
   3.6634150000000001    9.5025720000000007    0.0000000000000000
  -3.6634150000000001    9.5025720000000007    0.0000000000000000
   0.0000000000000000    0.6582420000000000   27.1278690000000005
Hg As H C S N
4 12 48 16 24 4
direct
   0.3246310000000000    0.1414720000000000    0.5534279999999990 Hg
   0.8585280000000000    0.6753690000000000    0.9465720000000000 Hg
   0.6753690000000000    0.8585280000000000    0.4465719999999990 Hg
   0.1414720000000000    0.3246310000000000    0.0534279999999990 Hg
   0.2671630000000000    0.3163630000000000    0.8087029999999999 As
   0.6836369999999991    0.7328370000000000    0.6912969999999991 As
   0.7328370000000000    0.6836369999999991    0.1912970000000000 As
   0.3163630000000000    0.2671630000000000    0.3087030000000000 As
   0.2748900000000000    0.2493649999999990    0.6852920000000000 As
   0.7506349999999991    0.7251100000000000    0.8147080000000000 As
   0.7251100000000000    0.7506349999999991    0.3147080000000000 As
   0.2493649999999990    0.2748900000000000    0.1852919999999990 As
   0.8126580000000000    0.5999420000000000    0.5671020000000000 As
   0.4000579999999990    0.1873419999999990    0.9328980000000000 As
   0.1873419999999990    0.4000579999999990    0.4328980000000000 As
   0.5999420000000000    0.8126580000000000    0.0671020000000000 As
   0.8540059999999990    0.1202449999999990    0.6224419999999991 H
   0.8797550000000000    0.1459939999999990    0.8775579999999999 H
   0.1459939999999990    0.8797550000000000    0.3775580000000000 H
   0.1202449999999990    0.8540059999999990    0.1224420000000000 H
   0.3256840000000000    0.7146990000000000    0.6815650000000000 H
   0.2853009999999990    0.6743159999999990    0.8184349999999990 H
   0.6743159999999990    0.2853009999999990    0.3184349999999990 H
   0.7146990000000000    0.3256840000000000    0.1815650000000000 H
   0.9618500000000001    0.7444989999999990    0.6441359999999990 H
   0.2555010000000000    0.0381500000000000    0.8558640000000000 H
   0.0381500000000000    0.2555010000000000    0.3558639999999990 H
   0.7444989999999990    0.9618500000000001    0.1441360000000000 H
   0.1047280000000000    0.9182880000000000    0.5609620000000000 H
   0.0817119999999990    0.8952720000000000    0.9390379999999990 H
   0.8952720000000000    0.0817119999999990    0.4390380000000000 H
   0.9182880000000000    0.1047280000000000    0.0609619999999990 H
   0.2768790000000000    0.8539939999999990    0.6040930000000000 H
   0.1460060000000000    0.7231210000000000    0.8959070000000000 H
   0.7231210000000000    0.1460060000000000    0.3959070000000000 H
   0.8539939999999990    0.2768790000000000    0.1040929999999990 H
   0.0167539999999990    0.0515450000000000    0.6695679999999991 H
   0.9484549999999990    0.9832460000000000    0.8304319999999999 H
   0.9832460000000000    0.9484549999999990    0.3304320000000000 H
   0.0515450000000000    0.0167539999999990    0.1695680000000000 H
   0.8677340000000000    0.0168540000000000    0.6791700000000001 H
   0.9831460000000000    0.1322660000000000    0.8208300000000001 H
   0.1322660000000000    0.9831460000000000    0.3208300000000000 H
   0.0168540000000000    0.8677340000000000    0.1791700000000000 H
   0.1455820000000000    0.6043539999999999    0.5963189999999990 H
   0.3956460000000000    0.8544180000000000    0.9036810000000000 H
   0.8544180000000000    0.3956469999999990    0.4036809999999990 H
   0.6043539999999999    0.1455820000000000    0.0963190000000000 H
   0.3267279999999990    0.6653160000000000    0.5743389999999990 H
   0.3346840000000000    0.6732720000000000    0.9256610000000000 H
   0.6732720000000000    0.3346840000000000    0.4256609999999990 H
   0.6653160000000000    0.3267279999999990    0.0743390000000000 H
   0.1883060000000000    0.6718149999999991    0.7005540000000000 H
   0.3281850000000000    0.8116939999999990    0.7994460000000000 H
   0.8116939999999990    0.3281850000000000    0.2994460000000000 H
   0.6718149999999991    0.1883060000000000    0.2005539999999990 H
   0.3723720000000000    0.5252510000000000    0.6533679999999999 H
   0.4747490000000000    0.6276280000000000    0.8466319999999991 H
   0.6276280000000000    0.4747490000000000    0.3466320000000000 H
   0.5252510000000000    0.3723720000000000    0.1533680000000000 H
   0.9141990000000000    0.8552790000000000    0.5853050000000000 H
   0.1447210000000000    0.0858010000000000    0.9146949999999990 H
   0.0858010000000000    0.1447210000000000    0.4146950000000000 H
   0.8552790000000000    0.9141990000000000    0.0853049999999990 H
   0.9506580000000000    0.0154259999999990    0.6521800000000001 C
   0.9845739999999999    0.0493420000000000    0.8478200000000000 C
   0.0493420000000000    0.9845739999999999    0.3478200000000000 C
   0.0154259999999990    0.9506580000000000    0.1521800000000000 C
   0.2600380000000000    0.6712950000000000    0.6696860000000000 C
   0.3287049999999990    0.7399620000000000    0.8303140000000000 C
   0.7399620000000000    0.3287049999999990    0.3303140000000000 C
   0.6712950000000000    0.2600380000000000    0.1696860000000000 C
   0.2117480000000000    0.8131090000000000    0.5893689999999990 C
   0.1868910000000000    0.7882520000000000    0.9106310000000000 C
   0.7882520000000000    0.1868910000000000    0.4106309999999990 C
   0.8131090000000000    0.2117480000000000    0.0893689999999990 C
   0.0269450000000000    0.7499650000000000    0.6126420000000000 C
   0.2500350000000000    0.9730550000000000    0.8873580000000000 C
   0.9730550000000000    0.2500350000000000    0.3873580000000000 C
   0.7499650000000000    0.0269450000000000    0.1126419999999990 C
   0.3501120000000000    0.9765619999999990    0.7054940000000000 S
   0.0234380000000000    0.6498880000000000    0.7945059999999990 S
   0.6498880000000000    0.0234380000000000    0.2945060000000000 S
   0.9765619999999990    0.3501120000000000    0.2054939999999990 S
   0.7286560000000000    0.5335620000000000    0.6385189999999999 S
   0.4664379999999990    0.2713440000000000    0.8614809999999991 S
   0.2713440000000000    0.4664379999999990    0.3614810000000000 S
   0.5335620000000000    0.7286560000000000    0.1385190000000000 S
   0.4781840000000000    0.1501470000000000    0.6230420000000000 S
   0.8498530000000000    0.5218159999999999    0.8769580000000000 S
   0.5218159999999999    0.8498530000000000    0.3769579999999990 S
   0.1501470000000000    0.4781840000000000    0.1230420000000000 S
   0.4614280000000000    0.2225909999999990    0.7414529999999990 S
   0.7774090000000000    0.5385719999999991    0.7585470000000000 S
   0.5385719999999991    0.7774090000000000    0.2585469999999990 S
   0.2225909999999990    0.4614280000000000    0.2414530000000000 S
   0.5412600000000001    0.7821830000000000    0.5211870000000000 S
   0.2178169999999990    0.4587400000000000    0.9788129999999990 S
   0.4587400000000000    0.2178169999999990    0.4788130000000000 S
   0.7821830000000000    0.5412600000000001    0.0211869999999990 S
   0.9902240000000000    0.3131850000000000    0.5307020000000000 S
   0.6868150000000000    0.0097760000000000    0.9692980000000000 S
   0.0097760000000000    0.6868150000000000    0.4692980000000000 S
   0.3131850000000000    0.9902240000000000    0.0307020000000000 S
   0.1110750000000000    0.8136380000000000    0.6308750000000000 N
   0.1863620000000000    0.8889250000000000    0.8691249999999990 N
   0.8889250000000000    0.1863620000000000    0.3691250000000000 N
   0.8136380000000000    0.1110750000000000    0.1308750000000000 N
