Na12 As4 H64 S16 O32
1.0
   8.4910415799999992    0.0000000000000000   -2.0273745100000000
   0.0000000000000000   13.0696648000000000    0.0000000000000000
  -0.0107324700000000    0.0000000000000000   13.7598143900000007
Na As H S O
12 4 64 16 32
direct
  -0.0000000000000000    0.5000000000000000    0.5000000000000000 Na
  -0.0000000000000000   -0.0000000000000000   -0.0000000000000000 Na
   0.5000000000000000   -0.0000000000000000    0.5000000000000000 Na
   0.5000000000000000    0.5000000000000000   -0.0000000000000000 Na
   0.3360736100000000    0.9501879200000001    0.9096355100000000 Na
   0.6639263900000000    0.4501879200000000    0.5903644900000000 Na
   0.6639263900000000    0.0498120800000000    0.0903644900000000 Na
   0.3360736100000000    0.5498120800000000    0.4096355100000000 Na
   0.8306879500000001    0.4412489800000000    0.9167218600000000 Na
   0.1693120500000000    0.9412489800000000    0.5832781400000000 Na
   0.1693120500000000    0.5587510200000000    0.0832781400000000 Na
   0.8306879500000001    0.0587510200000000    0.4167218600000000 Na
   0.7147377600000000    0.8281596999999991    0.7514452900000000 As
   0.2852622400000000    0.3281597000000000    0.7485547100000001 As
   0.2852622400000000    0.1718403000000000    0.2485547100000000 As
   0.7147377600000000    0.6718402999999999    0.2514452900000000 As
   0.1854192200000000    0.3461603000000000    0.4060472200000000 H
   0.8145807800000000    0.8461603000000000    0.0939527800000000 H
   0.8145807800000000    0.6538397000000000    0.5939527800000000 H
   0.1854192200000000    0.1538397000000000    0.9060472200000000 H
   0.2697973300000000    0.3629043900000000    0.5166066600000000 H
   0.7302026700000001    0.8629043900000000    0.9833933400000000 H
   0.7302026700000001    0.6370956100000000    0.4833933400000000 H
   0.2697973300000000    0.1370956100000000    0.0166066600000000 H
   0.0713588900000000    0.6912459300000000    0.4163488700000000 H
   0.9286411100000000    0.1912459300000000    0.0836511300000000 H
   0.9286411100000000    0.3087540700000000    0.5836511300000000 H
   0.0713588900000000    0.8087540700000000    0.9163488700000000 H
   0.1713911700000000    0.6913612100000001    0.5290426100000000 H
   0.8286088300000000    0.1913612100000000    0.9709573900000000 H
   0.8286088300000000    0.3086387900000000    0.4709573900000000 H
   0.1713911700000000    0.8086387900000001    0.0290426100000000 H
   0.7694620700000000    0.0653032900000000    0.6338909100000000 H
   0.2305379300000000    0.5653032900000000    0.8661090900000000 H
   0.2305379300000000    0.9346967100000000    0.3661090900000000 H
   0.7694620700000000    0.4346967100000000    0.1338909100000000 H
   0.7126209500000000    0.1666985600000000    0.5758758200000000 H
   0.2873790500000000    0.6666985600000001    0.9241241800000001 H
   0.2873790500000000    0.8333014400000001    0.4241241800000000 H
   0.7126209500000000    0.3333014400000000    0.0758758200000000 H
   0.5018170100000000    0.0183316400000000    0.6972699900000000 H
   0.4981829900000000    0.5183316400000000    0.8027300100000000 H
   0.4981829900000000    0.9816683600000000    0.3027300100000000 H
   0.5018170100000000    0.4816683600000000    0.1972699900000000 H
   0.4094931500000000    0.1160239400000000    0.6523378700000000 H
   0.5905068500000000    0.6160239400000000    0.8476621300000000 H
   0.5905068500000000    0.8839760600000001    0.3476621300000000 H
   0.4094931500000000    0.3839760600000000    0.1523378700000000 H
   0.6093173500000000    0.0585625800000000    0.8712099000000000 H
   0.3906826500000000    0.5585625800000000    0.6287901000000000 H
   0.3906826500000000    0.9414374200000000    0.1287901000000000 H
   0.6093173500000000    0.4414374200000000    0.3712099000000000 H
   0.4974888800000000    0.1451273400000000    0.8985685800000001 H
   0.5025111200000000    0.6451273400000000    0.6014314200000000 H
   0.5025111200000000    0.8548726600000001    0.1014314200000000 H
   0.4974888800000000    0.3548726600000000    0.3985685800000000 H
   0.0371445800000000    0.9702798100000000    0.7616974200000001 H
   0.9628554200000000    0.4702798100000000    0.7383025800000000 H
   0.9628554200000000    0.0297201900000000    0.2383025800000000 H
   0.0371445800000000    0.5297201900000000    0.2616974200000000 H
   0.1475198500000000    0.0571707900000000    0.7437018400000001 H
   0.8524801500000000    0.5571707900000000    0.7562981600000001 H
   0.8524801500000000    0.9428292100000000    0.2562981600000000 H
   0.1475198500000000    0.4428292100000000    0.2437018400000000 H
   0.6871028600000000    0.2666697800000000    0.8010204800000000 H
   0.3128971400000000    0.7666697800000000    0.6989795200000000 H
   0.3128971400000000    0.7333302200000000    0.1989795200000000 H
   0.6871028600000000    0.2333302200000000    0.3010204800000000 H
   0.8696831500000001    0.2565739600000000    0.8124876600000001 H
   0.1303168500000000    0.7565739600000000    0.6875123400000001 H
   0.1303168500000000    0.7434260400000000    0.1875123400000000 H
   0.8696831500000001    0.2434260400000000    0.3124876600000000 H
   0.1741637100000000    0.3625076000000000    0.9690553100000000 H
   0.8258362900000000    0.8625075999999990    0.5309446900000000 H
   0.8258362900000000    0.6374924000000000    0.0309446900000000 H
   0.1741637100000000    0.1374924000000000    0.4690553100000000 H
   0.0961179600000000    0.3452400800000000    0.0598646600000000 H
   0.9038820400000001    0.8452400800000001    0.4401353400000000 H
   0.9038820400000001    0.6547599200000001    0.9401353400000000 H
   0.0961179600000000    0.1547599200000000    0.5598646600000000 H
   0.7856080200000000    0.9891337600000000    0.7845791999999990 S
   0.2143919800000000    0.4891337600000000    0.7154208000000000 S
   0.2143919800000000    0.0108662400000000    0.2154208000000000 S
   0.7856080200000000    0.5108662400000000    0.2845792000000000 S
   0.6117829500000000    0.8081624800000000    0.5933877500000000 S
   0.3882170500000000    0.3081624800000000    0.9066122500000000 S
   0.3882170500000000    0.1918375200000000    0.4066122500000000 S
   0.6117829500000000    0.6918375200000000    0.0933877500000000 S
   0.5475999500000001    0.7865220900000001    0.8414671500000001 S
   0.4524000500000000    0.2865220900000000    0.6585328500000001 S
   0.4524000500000000    0.2134779100000000    0.1585328500000000 S
   0.5475999500000001    0.7134779100000000    0.3414671500000000 S
   0.9234819600000000    0.7276591200000000    0.7885245800000000 S
   0.0765180400000000    0.2276591200000000    0.7114754200000000 S
   0.0765180400000000    0.2723408800000000    0.2114754200000000 S
   0.9234819600000000    0.7723408800000000    0.2885245800000000 S
   0.1974494700000000    0.3967998800000000    0.4599828100000000 O
   0.8025505300000000    0.8967998800000000    0.0400171900000000 O
   0.8025505300000000    0.6032001200000000    0.5400171900000000 O
   0.1974494700000000    0.1032001200000000    0.9599828100000001 O
   0.1487242900000000    0.6512732800000001    0.4664100900000000 O
   0.8512757100000000    0.1512732800000000    0.0335899100000000 O
   0.8512757100000000    0.3487267200000000    0.5335899100000000 O
   0.1487242900000000    0.8487267200000000    0.9664100900000000 O
   0.7394402500000000    0.0955542800000000    0.5660932500000000 O
   0.2605597500000000    0.5955542800000000    0.9339067500000000 O
   0.2605597500000000    0.9044457200000000    0.4339067500000000 O
   0.7394402500000000    0.4044457200000000    0.0660932500000000 O
   0.4099954200000000    0.0405092100000000    0.6454501200000000 O
   0.5900045800000000    0.5405092100000000    0.8545498800000000 O
   0.5900045800000000    0.9594907900000000    0.3545498800000000 O
   0.4099954200000000    0.4594907900000000    0.1454501200000000 O
   0.5321190000000000    0.0733979100000000    0.9115849900000000 O
   0.4678810000000000    0.5733979100000001    0.5884150100000000 O
   0.4678810000000000    0.9266020900000000    0.0884160100000000 O
   0.5321190000000000    0.4266020900000000    0.4115839900000000 O
   0.1442782800000000    0.9819932200000000    0.7514584400000001 O
   0.8557217200000000    0.4819932200000000    0.7485415600000001 O
   0.8557217200000000    0.0180067800000000    0.2485415600000000 O
   0.1442782800000000    0.5180067800000000    0.2514584400000000 O
   0.7886130500000000    0.2653863300000000    0.8509746500000001 O
   0.2113869500000000    0.7653863300000000    0.6490253500000001 O
   0.2113869500000000    0.7346136700000000    0.1490253500000000 O
   0.7886130500000000    0.2346136700000000    0.3509746500000000 O
   0.0925082800000000    0.3898151500000000    0.0012709900000000 O
   0.9074917200000000    0.8898151500000000    0.4987290100000000 O
   0.9074917200000000    0.6101848500000000    0.9987290100000000 O
   0.0925082800000000    0.1101848500000000    0.5012709900000000 O
