As12 H48 C16 S20 N4
1.0
   9.7640130000000003    0.0000000000000000    0.0000000000000000
  -0.4166470000000000   10.6662909999999993    0.0000000000000000
  -2.2159460000000002   -0.4266840000000000   14.1477369999999993
As H C S N
12 48 16 20 4
direct
   0.0623470000000000    0.9670040000000000    0.6234790000000000 As
   0.1838860000000000    0.7584909999999990    0.8104020000000000 As
   0.1708770000000000    0.2738350000000000    0.7044710000000000 As
   0.1864770000000000    0.5960219999999991    0.0177109999999990 As
   0.3945900000000001    0.4833820000000000    0.8647200000000000 As
   0.4029149999999990    0.0686809999999990    0.5749360000000000 As
   0.5970850000000000    0.9313190000000000    0.4250640000000000 As
   0.6054100000000000    0.5166180000000000    0.1352800000000000 As
   0.8135230000000000    0.4039780000000000    0.9822890000000000 As
   0.8291229999999991    0.7261649999999999    0.2955290000000000 As
   0.8161140000000000    0.2415090000000000    0.1895980000000000 As
   0.9376530000000000    0.0329960000000000    0.3765210000000000 As
   0.0409610000000000    0.5176879999999990    0.3772540000000000 H
   0.0991669999999990    0.6402970000000000    0.4646490000000000 H
   0.2789890000000000    0.9811749999999991    0.9900900000000000 H
   0.1570290000000000    0.4830470000000000    0.4825029999999990 H
   0.1354489999999990    0.6803770000000000    0.2678370000000000 H
   0.1158550000000000    0.0466759999999990    0.1464880000000000 H
   0.2076090000000000    0.7774329999999990    0.3693900000000001 H
   0.3637760000000000    0.1344970000000000    0.9889380000000000 H
   0.1978390000000000    0.4618290000000000    0.2613590000000000 H
   0.2054860000000000    0.9058600000000001    0.1292330000000000 H
   0.2430610000000000    0.9949619999999991    0.2397079999999990 H
   0.2863340000000000    0.3911190000000000    0.3651120000000000 H
   0.1846120000000000    0.1209830000000000    0.0016190000000000 H
   0.2378289999999990    0.2483979999999990    0.1536440000000000 H
   0.3192280000000000    0.7199179999999999    0.2908810000000000 H
   0.3604239999999990    0.7042780000000000    0.4918590000000000 H
   0.4613109999999990    0.9345070000000000    0.8867480000000000 H
   0.3829750000000000    0.5397489999999990    0.5073630000000000 H
   0.3809780000000000    0.4950310000000000    0.2982269999999990 H
   0.5052280000000000    0.9765959999999990    0.7748370000000000 H
   0.3743550000000000    0.1986510000000000    0.2429930000000000 H
   0.4675040000000000    0.6218560000000000    0.4213730000000000 H
   0.5492890000000000    0.0842789999999990    0.8746710000000000 H
   0.5842910000000000    0.7402329999999990    0.8660120000000000 H
   0.4157090000000000    0.2597669999999990    0.1339880000000000 H
   0.4507110000000000    0.9157210000000000    0.1253290000000000 H
   0.5324960000000000    0.3781440000000000    0.5786270000000000 H
   0.6256450000000000    0.8013490000000000    0.7570070000000000 H
   0.4947720000000000    0.0234039999999990    0.2251630000000000 H
   0.6190220000000000    0.5049690000000000    0.7017730000000000 H
   0.6170249999999990    0.4602509999999990    0.4926370000000000 H
   0.5386890000000000    0.0654930000000000    0.1132519999999990 H
   0.6395759999999990    0.2957220000000000    0.5081410000000000 H
   0.6807719999999990    0.2800820000000000    0.7091189999999991 H
   0.7621709999999990    0.7516020000000000    0.8463560000000000 H
   0.8153880000000000    0.8790169999999990    0.9983810000000000 H
   0.7136660000000000    0.6088810000000000    0.6348880000000000 H
   0.7569389999999990    0.0050380000000000    0.7602920000000000 H
   0.7945139999999991    0.0941400000000000    0.8707670000000000 H
   0.8021610000000000    0.5381710000000000    0.7386410000000000 H
   0.6362240000000000    0.8655029999999990    0.0110619999999990 H
   0.7923910000000000    0.2225670000000000    0.6306100000000000 H
   0.8841450000000000    0.9533239999999999    0.8535119999999990 H
   0.8645510000000000    0.3196230000000000    0.7321630000000000 H
   0.8429709999999990    0.5169530000000000    0.5174970000000000 H
   0.7210110000000000    0.0188249999999990    0.0099100000000000 H
   0.9008330000000000    0.3597030000000000    0.5353510000000000 H
   0.9590390000000000    0.4823119999999990    0.6227460000000000 H
   0.1275389999999990    0.5543819999999990    0.4300239999999990 C
   0.2258379999999990    0.6989219999999990    0.3226330000000000 C
   0.2142049999999990    0.9998760000000000    0.1629400000000000 C
   0.2810209999999990    0.4749310000000000    0.3220850000000000 C
   0.3752890000000000    0.6147889999999990    0.4563859999999990 C
   0.2852710000000000    0.0782720000000000    0.0182589999999990 C
   0.3388690000000000    0.2056990000000000    0.1668120000000000 C
   0.5378100000000000    0.9852820000000000    0.8514550000000000 C
   0.4621900000000000    0.0147180000000000    0.1485449999999990 C
   0.6611310000000000    0.7943009999999990    0.8331879999999990 C
   0.7147289999999999    0.9217280000000000    0.9817410000000000 C
   0.6247110000000000    0.3852109999999990    0.5436139999999990 C
   0.7189789999999990    0.5250690000000000    0.6779149999999990 C
   0.7857949999999990    0.0001240000000000    0.8370600000000000 C
   0.7741620000000000    0.3010780000000000    0.6773669999999991 C
   0.8724609999999990    0.4456179999999990    0.5699759999999990 C
   0.0266290000000000    0.6743669999999991    0.8967879999999990 S
   0.0012129999999990    0.2170590000000000    0.3099960000000000 S
   0.1209330000000000    0.0784870000000000    0.7646010000000000 S
   0.2256200000000000    0.4066190000000000    0.9437160000000000 S
   0.1852490000000000    0.2174920000000000    0.5561070000000000 S
   0.2663740000000000    0.5852080000000000    0.7403609999999990 S
   0.2714510000000000    0.8910220000000000    0.6011560000000000 S
   0.3721270000000000    0.7078810000000000    0.9970150000000000 S
   0.4014390000000000    0.3038220000000000    0.7713850000000000 S
   0.3947090000000000    0.0772880000000000    0.4183460000000000 S
   0.6052910000000000    0.9227120000000000    0.5816540000000000 S
   0.5985610000000000    0.6961780000000000    0.2286149999999990 S
   0.6278730000000000    0.2921189999999990    0.0029850000000000 S
   0.7285490000000000    0.1089779999999990    0.3988440000000000 S
   0.7336260000000000    0.4147920000000000    0.2596390000000000 S
   0.8147510000000000    0.7825080000000000    0.4438930000000000 S
   0.7743800000000001    0.5933809999999990    0.0562840000000000 S
   0.8790669999999990    0.9215129999999990    0.2353990000000000 S
   0.9987870000000000    0.7829410000000000    0.6900040000000000 S
   0.9733710000000000    0.3256330000000000    0.1032120000000000 S
   0.2511770000000000    0.5852020000000000    0.3820889999999990 N
   0.3250719999999990    0.0749249999999990    0.1239500000000000 N
   0.6749280000000000    0.9250750000000000    0.8760500000000001 N
   0.7488230000000000    0.4147980000000000    0.6179110000000000 N
