Co2 Bi12 S4 O32
1.0
   5.8530160000000002   -2.8430049999999998   -5.1347800000000001
   5.8369299999999997    2.8431880000000000    6.2383939999999987
  -0.0003970000000000  -11.3711190000000002   -0.0005900000000000
Co Bi S O
2 12 4 32
direct
   0.9999889999999991    0.0000680000000000    0.5510010000000000 Co
   0.9999960000000000    0.9999990000000000    0.0507680000000000 Co
   0.6603110000000000    0.6476980000000000    0.5591659999999991 Bi
   0.6602040000000000    0.6476879999999990    0.0591439999999990 Bi
   0.3398190000000000    0.3522409999999990    0.5653600000000001 Bi
   0.3397360000000000    0.3522280000000000    0.0654209999999990 Bi
   0.3505290000000000    0.6923319999999999    0.3992500000000000 Bi
   0.3504780000000000    0.6923279999999991    0.8992720000000000 Bi
   0.6495639999999990    0.3075430000000000    0.2283230000000000 Bi
   0.6495470000000000    0.3075589999999990    0.7283410000000000 Bi
   0.6710240000000000    0.0081310000000000    0.3569940000000000 Bi
   0.6708930000000000    0.0081640000000000    0.8570540000000000 Bi
   0.3291880000000000    0.9918089999999991    0.6883920000000000 Bi
   0.3290520000000000    0.9918460000000000    0.1884809999999990 Bi
   0.9824079999999999    0.7135279999999991    0.7715639999999990 S
   0.9824370000000000    0.7135980000000000    0.2717450000000000 S
   0.0175770000000000    0.2865729999999990    0.4064300000000000 S
   0.0174950000000000    0.2864290000000000    0.9061049999999991 S
   0.5000570000000000    0.4999380000000000    0.4398990000000000 O
   0.4998979999999991    0.4999829999999990    0.9399400000000001 O
   0.4999940000000000    0.5000920000000000    0.6802030000000000 O
   0.5000080000000000    0.4999800000000000    0.1801309999999990 O
   0.9477310000000000    0.8050959999999990    0.4153449999999990 O
   0.9477519999999990    0.8049310000000000    0.9151629999999999 O
   0.0520650000000000    0.1953200000000000    0.4871900000000000 O
   0.0518910000000000    0.1951729999999990    0.9868690000000000 O
   0.9174890000000000    0.8108500000000001    0.7102229999999990 O
   0.9175840000000000    0.8108080000000000    0.2103100000000000 O
   0.0823740000000000    0.1890300000000000    0.2640090000000000 O
   0.0823320000000000    0.1888650000000000    0.7636980000000000 O
   0.8899380000000000    0.5663570000000000    0.7652669999999990 O
   0.8899500000000000    0.5664020000000000    0.2654980000000000 O
   0.1102740000000000    0.4336669999999990    0.4273929999999990 O
   0.1102290000000000    0.4334860000000000    0.9270680000000000 O
   0.1725570000000000    0.6865110000000000    0.7039289999999990 O
   0.1726029999999990    0.6865540000000000    0.2041420000000000 O
   0.8274429999999990    0.3137790000000000    0.4473479999999990 O
   0.8273739999999991    0.3136740000000000    0.9469900000000001 O
   0.2305450000000000    0.9400750000000000    0.5270830000000000 O
   0.2304129999999990    0.9401180000000000    0.0271240000000000 O
   0.7696430000000000    0.0599050000000000    0.1722950000000000 O
   0.7694879999999999    0.0599149999999990    0.6723460000000000 O
   0.5174770000000000    0.8143140000000000    0.5187070000000000 O
   0.5173940000000000    0.8143300000000001    0.0187139999999990 O
   0.4826669999999990    0.1856100000000000    0.3702050000000000 O
   0.4825730000000000    0.1856440000000000    0.8702639999999990 O
   0.5239929999999990    0.8189300000000000    0.7658929999999990 O
   0.5241310000000000    0.8188960000000000    0.2658390000000000 O
   0.4759160000000000    0.1809869999999990    0.1184220000000000 O
   0.4759680000000000    0.1810169999999990    0.6184020000000000 O
