Cu24 Sb8 S24
1.0
  10.2694700000000001    0.0000000000000000    0.0000000000000000
   0.0000000000000000    7.8435709999999998    0.0000000000000000
   0.0000000000000000    0.0622649999999990   13.4044880000000006
Cu Sb S
24 8 24
direct
   0.4023589999999990    0.8050189999999990    0.0805950000000000 Cu
   0.1041870000000000    0.3071040000000000    0.1700960000000000 Cu
   0.9605389999999990    0.0613600000000000    0.8645800000000000 Cu
   0.0978980000000000    0.1574720000000000    0.7018070000000000 Cu
   0.5394610000000000    0.0613600000000000    0.3645800000000000 Cu
   0.0394609999999990    0.9386400000000000    0.1354200000000000 Cu
   0.0976409999999990    0.8050189999999990    0.5805950000000000 Cu
   0.5290659999999990    0.5655009999999990    0.8991610000000000 Cu
   0.6041869999999990    0.6928960000000000    0.3299040000000000 Cu
   0.4605390000000000    0.9386400000000000    0.6354200000000001 Cu
   0.9021020000000000    0.8425279999999991    0.2981930000000000 Cu
   0.3989089999999990    0.6512209999999991    0.5475989999999999 Cu
   0.0290659999999990    0.4344989999999990    0.6008390000000000 Cu
   0.6010909999999990    0.3487790000000000    0.4524010000000000 Cu
   0.5978979999999990    0.8425279999999991    0.7981929999999990 Cu
   0.4709339999999990    0.4344989999999990    0.1008390000000000 Cu
   0.8989090000000000    0.3487790000000000    0.9524009999999991 Cu
   0.9023589999999990    0.1949810000000000    0.4194050000000000 Cu
   0.9709340000000000    0.5655009999999990    0.3991610000000000 Cu
   0.5976410000000000    0.1949810000000000    0.9194049999999990 Cu
   0.3958129999999990    0.3071040000000000    0.6700960000000000 Cu
   0.4021019999999990    0.1574720000000000    0.2018070000000000 Cu
   0.8958130000000000    0.6928960000000000    0.8299040000000000 Cu
   0.1010910000000000    0.6512209999999991    0.0475989999999990 Cu
   0.2450620000000000    0.2134380000000000    0.4447560000000000 Sb
   0.2528450000000000    0.7169890000000000    0.3044670000000000 Sb
   0.7450620000000000    0.7865620000000000    0.0552439999999990 Sb
   0.7471550000000000    0.2830110000000000    0.6955330000000000 Sb
   0.2549380000000000    0.2134380000000000    0.9447559999999990 Sb
   0.7528450000000000    0.2830110000000000    0.1955329999999990 Sb
   0.2471549999999990    0.7169890000000000    0.8044669999999990 Sb
   0.7549380000000000    0.7865620000000000    0.5552440000000000 Sb
   0.2450100000000000    0.9492180000000000    0.6732349999999990 S
   0.4339360000000000    0.8178609999999999    0.4117780000000000 S
   0.0695969999999990    0.3173020000000000    0.8406720000000000 S
   0.7498950000000000    0.5544260000000000    0.9260689999999990 S
   0.7501049999999990    0.5544260000000000    0.4260690000000000 S
   0.4300009999999990    0.8262370000000000    0.9125730000000000 S
   0.5660640000000000    0.1821390000000000    0.5882220000000000 S
   0.0660640000000000    0.8178609999999999    0.9117780000000000 S
   0.5699989999999990    0.1737630000000000    0.0874269999999990 S
   0.9334629999999990    0.6705439999999990    0.6643600000000001 S
   0.9300010000000000    0.1737630000000000    0.5874269999999990 S
   0.4334630000000000    0.3294559999999990    0.8356400000000000 S
   0.5665370000000000    0.6705439999999990    0.1643600000000000 S
   0.5695970000000000    0.6826979999999990    0.6593280000000000 S
   0.9339360000000000    0.1821390000000000    0.0882220000000000 S
   0.0699989999999990    0.8262370000000000    0.4125729999999990 S
   0.7450100000000001    0.0507820000000000    0.8267650000000000 S
   0.2501049999999990    0.4455739999999990    0.0739310000000000 S
   0.2498949999999990    0.4455739999999990    0.5739310000000000 S
   0.7549900000000000    0.0507820000000000    0.3267649999999990 S
   0.4304030000000000    0.3173020000000000    0.3406720000000000 S
   0.0665370000000000    0.3294559999999990    0.3356400000000000 S
   0.2549900000000000    0.9492180000000000    0.1732350000000000 S
   0.9304030000000000    0.6826979999999990    0.1593280000000000 S
