Zn1 In3 As1 Se4
1.0
   5.9761480000000002    0.0000000000000000    0.0000000000000000
   2.9796309999999999    6.6363009999999996    0.0000000000000000
   2.9750550000000002    0.0454470000000000    6.6864830000000000
Zn In As Se
1 3 1 4
direct
   0.9871869999999990    0.0035260000000000    0.9984080000000000 Zn
   0.3966949999999990    0.3954640000000000    0.8080330000000000 In
   0.6119859999999990    0.6028749999999991    0.1934100000000000 In
   0.8028630000000000    0.8004700000000000    0.6013729999999990 In
   0.4261560000000000    0.7162900000000001    0.9040020000000000 As
   0.6462129999999990    0.9181360000000000    0.2959800000000000 Se
   0.8698530000000000    0.1042350000000000    0.6951419999999990 Se
   0.0520150000000000    0.2789109999999990    0.1128680000000000 Se
   0.2570330000000000    0.4800930000000000    0.4907849999999990 Se
