Mg1 Cu3 As1 S4
1.0
   5.5924389999999997    0.0000000000000000    0.0000000000000000
   0.0000000000000000    5.5924389999999997    0.0000000000000000
   0.0000000000000000    0.0000000000000000    5.5924389999999997
Mg Cu As S
1 3 1 4
direct
   0.5000000000000000    0.5000000000000000    0.5000000000000000 Mg
   0.0000000000000000    0.5000000000000000    0.5000000000000000 Cu
   0.5000000000000000    0.5000000000000000    0.0000000000000000 Cu
   0.5000000000000000    0.0000000000000000    0.5000000000000000 Cu
   0.0000000000000000    0.0000000000000000    0.0000000000000000 As
   0.2535800000000000    0.7464200000000001    0.7464200000000001 S
   0.7464200000000001    0.7464200000000001    0.2535800000000000 S
   0.7464200000000001    0.2535800000000000    0.7464200000000001 S
   0.2535800000000000    0.2535800000000000    0.2535800000000000 S
