Cs12 Bi8 P12 S48
1.0
   6.9740970000000004    0.0000000000000000    0.0000000000000000
   0.0000000000000000   18.5448209999999989    0.0000000000000000
   0.0000000000000000    2.8382049999999999   19.0716269999999994
Cs Bi P S
12 8 12 48
direct
   0.7326190000000000    0.8920119999999990    0.9882590000000000 Cs
   0.2326190000000000    0.1079880000000000    0.5117410000000000 Cs
   0.2673810000000000    0.1079880000000000    0.0117410000000000 Cs
   0.7673810000000000    0.8920119999999990    0.4882590000000000 Cs
   0.7521129999999990    0.6235490000000000    0.3083780000000000 Cs
   0.2521130000000000    0.3764510000000000    0.1916220000000000 Cs
   0.2478870000000000    0.3764510000000000    0.6916220000000000 Cs
   0.7478870000000000    0.6235490000000000    0.8083779999999990 Cs
   0.2766750000000000    0.7638110000000000    0.6318200000000000 Cs
   0.7766750000000000    0.2361889999999990    0.8681800000000001 Cs
   0.7233250000000000    0.2361889999999990    0.3681800000000000 Cs
   0.2233250000000000    0.7638110000000000    0.1318200000000000 Cs
   0.1904180000000000    0.9283619999999990    0.7909780000000000 Bi
   0.6904180000000000    0.0716380000000000    0.7090219999999990 Bi
   0.8095819999999990    0.0716380000000000    0.2090219999999990 Bi
   0.3095819999999990    0.9283619999999990    0.2909780000000000 Bi
   0.3212540000000000    0.5978000000000000    0.5059210000000000 Bi
   0.8212539999999990    0.4022000000000000    0.9940789999999990 Bi
   0.6787460000000000    0.4022000000000000    0.4940790000000000 Bi
   0.1787460000000000    0.5978000000000000    0.0059210000000000 Bi
   0.7906540000000000    0.8825740000000000    0.6966580000000000 P
   0.2906539999999990    0.1174259999999990    0.8033420000000000 P
   0.2093460000000000    0.1174259999999990    0.3033420000000000 P
   0.7093459999999990    0.8825740000000000    0.1966580000000000 P
   0.2471800000000000    0.7770549999999991    0.4182500000000000 P
   0.7471800000000001    0.2229449999999990    0.0817500000000000 P
   0.7528200000000000    0.2229449999999990    0.5817500000000001 P
   0.2528200000000000    0.7770549999999991    0.9182500000000001 P
   0.7494580000000000    0.5382220000000000    0.6042310000000000 P
   0.2494579999999990    0.4617779999999990    0.8957689999999990 P
   0.2505420000000000    0.4617779999999990    0.3957690000000000 P
   0.7505419999999990    0.5382220000000000    0.1042309999999990 P
   0.8256570000000000    0.8841680000000000    0.8045850000000000 S
   0.3256570000000000    0.1158319999999990    0.6954150000000000 S
   0.1743430000000000    0.1158319999999990    0.1954149999999990 S
   0.6743429999999990    0.8841680000000000    0.3045850000000000 S
   0.7795310000000000    0.7833829999999991    0.6677919999999991 S
   0.2795310000000000    0.2166170000000000    0.8322079999999999 S
   0.2204690000000000    0.2166170000000000    0.3322080000000000 S
   0.7204689999999990    0.7833829999999991    0.1677920000000000 S
   0.2340010000000000    0.8852289999999990    0.9354739999999990 S
   0.7340010000000000    0.1147710000000000    0.5645260000000000 S
   0.7659990000000000    0.1147710000000000    0.0645260000000000 S
   0.2659990000000000    0.8852289999999990    0.4354739999999990 S
   0.0234690000000000    0.9425720000000000    0.6531549999999990 S
   0.5234690000000000    0.0574280000000000    0.8468450000000000 S
   0.9765309999999990    0.0574280000000000    0.3468449999999990 S
   0.4765310000000000    0.9425720000000000    0.1531549999999990 S
   0.5032790000000000    0.7267300000000001    0.4499800000000000 S
   0.0032790000000000    0.2732700000000000    0.0500200000000000 S
   0.4967209999999990    0.2732700000000000    0.5500200000000001 S
   0.9967210000000000    0.7267300000000001    0.9499800000000000 S
   0.1945059999999990    0.7830670000000000    0.3122020000000000 S
   0.6945060000000000    0.2169330000000000    0.1877980000000000 S
   0.8054939999999990    0.2169330000000000    0.6877980000000000 S
   0.3054940000000000    0.7830670000000000    0.8122020000000000 S
   0.5098140000000000    0.5805439999999999    0.6448950000000000 S
   0.0098140000000000    0.4194560000000000    0.8551050000000000 S
   0.4901859999999990    0.4194560000000000    0.3551050000000000 S
   0.9901860000000000    0.5805439999999999    0.1448950000000000 S
   0.2538249999999990    0.5751710000000000    0.3708140000000000 S
   0.7538250000000000    0.4248289999999990    0.1291860000000000 S
   0.7461749999999990    0.4248289999999990    0.6291860000000000 S
   0.2461749999999990    0.5751710000000000    0.8708140000000000 S
   0.0368600000000000    0.7212140000000000    0.4753340000000000 S
   0.5368600000000000    0.2787860000000000    0.0246660000000000 S
   0.9631400000000001    0.2787860000000000    0.5246660000000000 S
   0.4631400000000001    0.7212140000000000    0.9753339999999990 S
   0.7145400000000001    0.5589490000000000    0.4940700000000001 S
   0.2145400000000000    0.4410509999999990    0.0059300000000000 S
   0.2854600000000000    0.4410509999999990    0.5059300000000000 S
   0.7854600000000000    0.5589490000000000    0.9940700000000001 S
   0.9994120000000000    0.5761060000000000    0.6355300000000000 S
   0.4994119999999990    0.4238940000000000    0.8644700000000001 S
   0.0005880000000000    0.4238940000000000    0.3644700000000000 S
   0.5005879999999990    0.5761060000000000    0.1355300000000000 S
   0.5407130000000000    0.9387289999999990    0.6662169999999999 S
   0.0407130000000000    0.0612710000000000    0.8337829999999991 S
   0.4592870000000000    0.0612710000000000    0.3337830000000000 S
   0.9592870000000000    0.9387289999999990    0.1662170000000000 S
