Ag2 Sb6 Pb2 S12
1.0
   5.8642529999999997    0.0000000000000000    0.0000000000000000
   0.0000000000000000    7.5862579999999999    0.0000000000000000
   0.0000000000000000    4.2004400000000004   14.7516739999999995
Ag Sb Pb S
2 6 2 12
direct
   0.8209860000000000    0.2601640000000000    0.7101550000000000 Ag
   0.1790139999999990    0.2601640000000000    0.2101549999999990 Ag
   0.2659269999999990    0.3419669999999990    0.9693729999999990 Sb
   0.3146710000000000    0.6684300000000001    0.5327480000000000 Sb
   0.7122410000000000    0.6504219999999999    0.7493700000000001 Sb
   0.2877590000000000    0.6504219999999999    0.2493700000000000 Sb
   0.6853290000000000    0.6684300000000001    0.0327480000000000 Sb
   0.7340730000000000    0.3419669999999990    0.4693730000000000 Sb
   0.3247600000000000    0.0150949999999990    0.7754979999999990 Pb
   0.6752400000000001    0.0150949999999990    0.2754979999999990 Pb
   0.8235929999999990    0.9296409999999991    0.7957430000000000 S
   0.1764069999999990    0.9296409999999991    0.2957430000000000 S
   0.0680450000000000    0.5310619999999990    0.7000390000000000 S
   0.9319550000000000    0.5310619999999990    0.2000390000000000 S
   0.4667690000000000    0.8602280000000000    0.1117600000000000 S
   0.4708020000000000    0.2184249999999990    0.3826130000000000 S
   0.5291979999999999    0.2184249999999990    0.8826130000000000 S
   0.5332310000000000    0.8602280000000000    0.6117600000000001 S
   0.3283810000000000    0.6795780000000000    0.9255359999999990 S
   0.6716190000000000    0.6795780000000000    0.4255359999999990 S
   0.5436280000000000    0.3449890000000000    0.0971650000000000 S
   0.4563720000000000    0.3449890000000000    0.5971649999999999 S
