Li24 Bi8 S24
1.0
 -11.0459060000000004    0.0000000000000000    0.0000000000000000
  -0.3885550000000000  -11.1988249999999994    0.0000000000000000
   3.9609980000000000    4.8149590000000000   10.6173199999999994
Li Bi S
24 8 24
direct
   0.9098820000000000    0.5031010000000000    0.0753440000000000 Li
   0.9277639999999990    0.6628720000000000    0.4482879999999990 Li
   0.8971589999999990    0.0814250000000000    0.5004750000000000 Li
   0.8412120000000000    0.3735739999999990    0.6511859999999990 Li
   0.7200569999999999    0.5486449999999991    0.2164700000000000 Li
   0.6834789999999999    0.8523989999999990    0.4087440000000000 Li
   0.6597990000000000    0.1079820000000000    0.3354400000000000 Li
   0.5269600000000001    0.7374790000000000    0.0640309999999990 Li
   0.5773450000000000    0.4263860000000000    0.3779100000000000 Li
   0.4885440000000000    0.1336500000000000    0.1079639999999990 Li
   0.6822039999999990    0.4562300000000000    0.8303579999999990 Li
   0.4851220000000000    0.7480200000000000    0.4607270000000000 Li
   0.5148779999999999    0.2519800000000000    0.5392730000000000 Li
   0.3177959999999990    0.5437700000000001    0.1696420000000000 Li
   0.5114560000000000    0.8663500000000001    0.8920359999999991 Li
   0.4226550000000000    0.5736140000000000    0.6220900000000000 Li
   0.4730400000000000    0.2625210000000000    0.9359689999999991 Li
   0.3402010000000000    0.8920180000000000    0.6645600000000000 Li
   0.3165210000000000    0.1476009999999990    0.5912560000000000 Li
   0.2799430000000000    0.4513550000000000    0.7835300000000001 Li
   0.1587879999999990    0.6264259999999990    0.3488139999999990 Li
   0.1028410000000000    0.9185749999999990    0.4995250000000000 Li
   0.0722360000000000    0.3371280000000000    0.5517120000000000 Li
   0.0901179999999990    0.4968990000000000    0.9246559999999990 Li
   0.8439800000000001    0.8311660000000000    0.1431869999999990 Bi
   0.8297249999999990    0.2512860000000000    0.2029340000000000 Bi
   0.7521359999999990    0.6963309999999990    0.6857759999999991 Bi
   0.7205539999999990    0.1382789999999990    0.7658760000000000 Bi
   0.2794459999999990    0.8617210000000000    0.2341240000000000 Bi
   0.2478640000000000    0.3036689999999990    0.3142240000000000 Bi
   0.1702749999999990    0.7487140000000000    0.7970659999999991 Bi
   0.1560200000000000    0.1688339999999990    0.8568129999999990 Bi
   0.9523389999999990    0.4745950000000000    0.2683530000000000 S
   0.8840580000000000    0.8503919999999990    0.3641439999999990 S
   0.8550300000000001    0.2527590000000000    0.4169910000000000 S
   0.7108850000000000    0.6106560000000000    0.0423300000000000 S
   0.6397220000000000    0.9573910000000000    0.1173070000000000 S
   0.8895120000000000    0.3427570000000000    0.8598150000000000 S
   0.6114400000000001    0.3363910000000000    0.1581850000000000 S
   0.7122630000000000    0.6576330000000000    0.4592190000000000 S
   0.6936570000000000    0.0858090000000000    0.5388100000000000 S
   0.6409880000000000    0.4763139999999990    0.6320690000000000 S
   0.4731309999999990    0.7337840000000000    0.2385060000000000 S
   0.4419150000000000    0.1751240000000000    0.3009660000000000 S
   0.5580849999999991    0.8248759999999991    0.6990339999999990 S
   0.5268689999999990    0.2662160000000000    0.7614940000000000 S
   0.3590120000000000    0.5236860000000000    0.3679310000000000 S
   0.3063430000000000    0.9141910000000000    0.4611900000000000 S
   0.2877369999999990    0.3423670000000000    0.5407810000000000 S
   0.3885600000000000    0.6636090000000000    0.8418150000000000 S
   0.1104879999999990    0.6572430000000000    0.1401850000000000 S
   0.3602780000000000    0.0426090000000000    0.8826929999999999 S
   0.2891150000000000    0.3893439999999990    0.9576700000000000 S
   0.1449700000000000    0.7472409999999990    0.5830090000000000 S
   0.1159419999999990    0.1496080000000000    0.6358560000000000 S
   0.0476609999999990    0.5254050000000000    0.7316469999999990 S
