La6 Be2 Sb2 S14
1.0
   5.1474979999999997   -8.9157270000000004    0.0000000000000000
   5.1474979999999997    8.9157270000000004    0.0000000000000000
   0.0000000000000000    0.0000000000000000    6.2531179999999997
La Be Sb S
6 2 2 14
direct
   0.7405670000000000    0.1369010000000000    0.7458300000000001 La
   0.3963339999999990    0.2594329999999990    0.7458300000000001 La
   0.8630989999999999    0.6036659999999990    0.7458300000000001 La
   0.2594329999999990    0.8630989999999999    0.2458300000000000 La
   0.6036659999999990    0.7405670000000000    0.2458300000000000 La
   0.1369010000000000    0.3963339999999990    0.2458300000000000 La
   0.6666670000000000    0.3333330000000000    0.1596729999999990 Be
   0.3333330000000000    0.6666670000000000    0.6596730000000000 Be
   0.0000000000000000    0.0000000000000000    0.4893570000000000 Sb
   0.0000000000000000    0.0000000000000000    0.9893569999999990 Sb
   0.8372790000000000    0.0879259999999990    0.2860149999999990 S
   0.2506470000000000    0.1627210000000000    0.2860149999999990 S
   0.9120739999999991    0.7493529999999990    0.2860149999999990 S
   0.1627210000000000    0.9120739999999991    0.7860150000000000 S
   0.7493529999999990    0.8372790000000000    0.7860150000000000 S
   0.0879259999999990    0.2506470000000000    0.7860150000000000 S
   0.8835510000000000    0.4036600000000000    0.0268419999999990 S
   0.5201089999999990    0.1164490000000000    0.0268419999999990 S
   0.5963400000000001    0.4798909999999990    0.0268419999999990 S
   0.1164490000000000    0.5963400000000001    0.5268419999999990 S
   0.4798909999999990    0.8835510000000000    0.5268419999999990 S
   0.4036600000000000    0.5201089999999990    0.5268419999999990 S
   0.6666670000000000    0.3333330000000000    0.5069049999999991 S
   0.3333330000000000    0.6666670000000000    0.0069050000000000 S
