In16 Bi12 S40
1.0
   7.7595739999999997    0.0000000000000000    0.0000000000000000
  -0.0232689999999990   11.7168100000000006    0.0000000000000000
  -0.0004540000000000   -2.5377839999999998   17.8402230000000017
In Bi S
16 12 40
direct
   0.4987129999999990    0.2207210000000000    0.0388050000000000 In
   0.2493280000000000    0.7309329999999991    0.3809260000000000 In
   0.7506290000000000    0.7347880000000000    0.3824329999999990 In
   0.2437379999999990    0.9448169999999990    0.6790200000000001 In
   0.7512639999999990    0.9446100000000001    0.6750379999999990 In
   0.9992529999999999    0.9023490000000000    0.8568159999999990 In
   0.5042590000000000    0.6942809999999990    0.5591960000000000 In
   0.4990500000000000    0.9076710000000000    0.8576650000000000 In
   0.4996080000000000    0.7778990000000000    0.2041710000000000 In
   0.9997130000000000    0.2193820000000000    0.0384790000000000 In
   0.9953350000000000    0.6906590000000000    0.5647829999999990 In
   0.9999279999999990    0.7772939999999990    0.2036400000000000 In
   0.2505140000000000    0.8601200000000001    0.0349480000000000 In
   0.7499660000000000    0.8601869999999990    0.0350590000000000 In
   0.2497950000000000    0.4171410000000000    0.2001649999999990 In
   0.7506490000000000    0.4184230000000000    0.2002640000000000 In
   0.2952349999999990    0.5704900000000001    0.7361789999999990 Bi
   0.6991780000000000    0.5708510000000000    0.7361559999999990 Bi
   0.2478620000000000    0.3744340000000000    0.4333920000000000 Bi
   0.7441960000000000    0.3651240000000000    0.4327950000000000 Bi
   0.4984019999999990    0.2598390000000000    0.8042900000000001 Bi
   0.2488280000000000    0.5053369999999990    0.9844740000000000 Bi
   0.7513590000000000    0.5050530000000000    0.9846910000000000 Bi
   0.4993600000000000    0.1326139999999990    0.2543249999999990 Bi
   0.9984480000000000    0.2776000000000000    0.8079780000000000 Bi
   0.9942730000000000    0.1332519999999990    0.2545630000000000 Bi
   0.4373930000000000    0.0627850000000000    0.5018150000000000 Bi
   0.0305130000000000    0.0695669999999990    0.5027520000000000 Bi
   0.9998239999999990    0.0011250000000000    0.0000260000000000 S
   0.9993130000000000    0.0855180000000000    0.6475750000000000 S
   0.4996960000000000    0.4842829999999990    0.8773120000000000 S
   0.4982680000000000    0.8654400000000001    0.3480680000000000 S
   0.2490750000000000    0.6350420000000000    0.2380360000000000 S
   0.7500230000000000    0.6365170000000000    0.2389460000000000 S
   0.0018150000000000    0.8646889999999990    0.3484490000000000 S
   0.5001320000000000    0.7145279999999991    0.0589380000000000 S
   0.4913380000000000    0.2977460000000000    0.5183320000000000 S
   0.0004210000000000    0.5988510000000000    0.4260960000000000 S
   0.9998570000000000    0.8001440000000000    0.7057700000000000 S
   0.2477329999999990    0.2733300000000000    0.9480109999999990 S
   0.7509779999999990    0.2730579999999990    0.9478820000000000 S
   0.5010730000000000    0.3645160000000000    0.2905390000000000 S
   0.2481850000000000    0.1511430000000000    0.3613190000000000 S
   0.7478200000000000    0.1454420000000000    0.3633600000000000 S
   0.0000770000000000    0.4349739999999990    0.0949560000000000 S
   0.2578550000000000    0.8408150000000000    0.5323190000000000 S
   0.7565130000000000    0.8371120000000000    0.5333280000000000 S
   0.9999319999999990    0.4963320000000000    0.8757659999999990 S
   0.4998280000000000    0.5988000000000000    0.4220290000000000 S
   0.2519960000000000    0.7724340000000000    0.8908210000000000 S
   0.7466360000000000    0.7734860000000000    0.8905189999999999 S
   0.9994660000000000    0.7144220000000000    0.0582240000000000 S
   0.5004600000000000    0.0031579999999990    0.0008539999999990 S
   0.2496120000000000    0.2027189999999990    0.1439850000000000 S
   0.7501049999999990    0.2028440000000000    0.1437840000000000 S
   0.9986379999999990    0.3651490000000000    0.2910629999999990 S
   0.0008089999999990    0.3008059999999990    0.5186780000000000 S
   0.4922700000000000    0.0805960000000000    0.6474670000000000 S
   0.2528690000000000    0.5569630000000000    0.5906159999999990 S
   0.7428560000000000    0.5516630000000000    0.5911630000000000 S
   0.2477150000000000    0.0389560000000000    0.8163750000000000 S
   0.7476119999999991    0.0394150000000000    0.8132579999999990 S
   0.2529760000000000    0.3384030000000000    0.7199340000000000 S
   0.7438370000000000    0.3381200000000000    0.7204450000000000 S
   0.5000140000000000    0.7967639999999990    0.7064480000000000 S
   0.5008200000000000    0.4354700000000000    0.0947990000000000 S
   0.2499610000000000    0.9228750000000000    0.1800689999999990 S
   0.7507010000000000    0.9230300000000001    0.1804700000000000 S
