In9 Ga3 Bi4 S24
1.0
   0.0000000000000000   -3.8842569999999998    0.0000000000000000
 -20.3397669999999984    0.0000000000000000   -2.3304650000000002
   0.0380740000000000    0.0000000000000000  -12.5989599999999999
In Ga Bi S
9 3 4 24
direct
   0.7500000000000000    0.1278870000000000    0.0960080000000000 In
   0.7500000000000000    0.6284790000000000    0.5961800000000000 In
   0.2500000000000000    0.3707410000000000    0.3978640000000000 In
   0.2500000000000000    0.8717180000000000    0.9041230000000000 In
   0.7500000000000000    0.0249859999999990    0.6176220000000000 In
   0.7500000000000000    0.5256680000000000    0.1173950000000000 In
   0.2500000000000000    0.4758449999999990    0.8854500000000001 In
   0.2500000000000000    0.9748400000000000    0.3823539999999990 In
   0.7500000000000000    0.4135260000000000    0.6763770000000000 In
   0.7500000000000000    0.9167320000000000    0.1776250000000000 Ga
   0.2500000000000000    0.0831829999999990    0.8224690000000000 Ga
   0.2500000000000000    0.5829440000000000    0.3224670000000000 Ga
   0.7500000000000000    0.2044860000000000    0.4056740000000000 Bi
   0.7500000000000000    0.7054250000000000    0.9058140000000000 Bi
   0.2500000000000000    0.2945140000000000    0.0930410000000000 Bi
   0.2500000000000000    0.7947419999999999    0.5942410000000000 Bi
   0.7500000000000000    0.4231100000000000    0.0110120000000000 S
   0.7500000000000000    0.9229529999999990    0.5092770000000000 S
   0.2500000000000000    0.0776380000000000    0.4902189999999990 S
   0.2500000000000000    0.5788730000000000    0.9918400000000001 S
   0.7500000000000000    0.0201090000000000    0.2448449999999990 S
   0.7500000000000000    0.5244449999999991    0.7506750000000000 S
   0.2500000000000000    0.4805180000000000    0.2520050000000000 S
   0.2500000000000000    0.9800810000000000    0.7550589999999990 S
   0.7500000000000000    0.3193129999999990    0.2786440000000000 S
   0.7500000000000000    0.8215110000000000    0.7825800000000001 S
   0.2500000000000000    0.1786650000000000    0.2178050000000000 S
   0.2500000000000000    0.6797380000000000    0.7173079999999999 S
   0.7500000000000000    0.2424150000000000    0.9812879999999990 S
   0.7500000000000000    0.7430439999999990    0.4806979999999990 S
   0.2500000000000000    0.2575710000000000    0.5182249999999990 S
   0.2500000000000000    0.7569490000000000    0.0189070000000000 S
   0.7500000000000000    0.1291439999999990    0.7379009999999990 S
   0.7500000000000000    0.6293059999999990    0.2390700000000000 S
   0.2500000000000000    0.3652970000000000    0.7798430000000000 S
   0.2500000000000000    0.8709429999999990    0.2620119999999990 S
   0.7500000000000000    0.4305819999999990    0.4809210000000000 S
   0.7500000000000000    0.9275559999999990    0.9954109999999990 S
   0.2500000000000000    0.0723740000000000    0.0044139999999990 S
   0.2500000000000000    0.5721490000000000    0.5053369999999990 S
