K6 Sm2 As4 S16
1.0
   9.6188669999999998    5.2897210000000001    0.0000000000000000
  -9.6188669999999998    5.2897210000000001    0.0000000000000000
   0.0000000000000000    4.1988510000000003    8.0322730000000000
K Sm As S
6 2 4 16
direct
   0.0046749999999990    0.9953249999999991    0.7500000000000000 K
   0.7393100000000000    0.2606900000000000    0.2500000000000000 K
   0.5000000000000000    0.5000000000000000    0.0000000000000000 K
   0.2606900000000000    0.7393100000000000    0.7500000000000000 K
   0.9953249999999991    0.0046749999999990    0.2500000000000000 K
   0.5000000000000000    0.5000000000000000    0.5000000000000000 K
   0.2428410000000000    0.7571589999999990    0.2500000000000000 Sm
   0.7571589999999990    0.2428410000000000    0.7500000000000000 Sm
   0.6571659999999990    0.9058149999999990    0.1028110000000000 As
   0.9058149999999990    0.6571659999999990    0.6028110000000000 As
   0.0941849999999990    0.3428339999999990    0.3971889999999990 As
   0.3428339999999990    0.0941849999999990    0.8971890000000000 As
   0.2394980000000000    0.2664310000000000    0.3720179999999990 S
   0.1329270000000000    0.8427930000000000    0.0208310000000000 S
   0.1405809999999990    0.4966810000000000    0.1555669999999990 S
   0.2664310000000000    0.2394980000000000    0.8720180000000000 S
   0.8427930000000000    0.1329270000000000    0.5208309999999990 S
   0.4966810000000000    0.1405809999999990    0.6555670000000000 S
   0.1254340000000000    0.4709859999999990    0.5580189999999990 S
   0.4709859999999990    0.1254340000000000    0.0580189999999990 S
   0.8594189999999990    0.5033190000000000    0.8444330000000000 S
   0.8745660000000000    0.5290140000000000    0.4419809999999990 S
   0.5290140000000000    0.8745660000000000    0.9419810000000000 S
   0.5033190000000000    0.8594189999999990    0.3444330000000000 S
   0.7605020000000000    0.7335689999999990    0.6279819999999990 S
   0.7335689999999990    0.7605020000000000    0.1279819999999990 S
   0.1572069999999990    0.8670730000000000    0.4791689999999990 S
   0.8670730000000000    0.1572069999999990    0.9791690000000000 S
