Cu2 Bi8 Pb3 Se3 S13
1.0
   2.1225969999999998   13.4736010000000004    0.0000000000000000
  -2.1225969999999998   13.4736010000000004    0.0000000000000000
   0.0000000000000000    9.9640319999999996   13.3491719999999994
Cu Bi Pb Se S
2 8 3 3 13
direct
   0.9535619999999990    0.9535619999999990    0.4843630000000000 Cu
   0.0467910000000000    0.0467910000000000    0.5135440000000000 Cu
   0.6873880000000000    0.6873880000000000    0.4833860000000000 Bi
   0.3134949999999990    0.3134949999999990    0.5155770000000000 Bi
   0.3503630000000000    0.3503630000000000    0.2304389999999990 Bi
   0.6498870000000000    0.6498870000000000    0.7705740000000000 Bi
   0.1792450000000000    0.1792450000000000    0.0190520000000000 Bi
   0.8215370000000000    0.8215370000000000    0.9801780000000000 Bi
   0.6412800000000001    0.6412800000000001    0.2695880000000000 Bi
   0.3584950000000000    0.3584950000000000    0.7290489999999999 Bi
   0.9999790000000000    0.9999790000000000    0.0065350000000000 Pb
   0.9710979999999991    0.9710979999999991    0.2770680000000000 Pb
   0.0294439999999990    0.0294439999999990    0.7188420000000000 Pb
   0.5185950000000000    0.5185950000000000    0.8605280000000000 Se
   0.2108080000000000    0.2108080000000000    0.3512840000000000 Se
   0.7897600000000000    0.7897600000000000    0.6480790000000000 Se
   0.4308340000000000    0.4308340000000000    0.4414519999999990 S
   0.5704530000000000    0.5704530000000000    0.5545080000000000 S
   0.0638109999999990    0.0638109999999990    0.3611490000000000 S
   0.9361309999999990    0.9361309999999990    0.6370110000000000 S
   0.8412000000000001    0.8412000000000001    0.3686580000000000 S
   0.1583540000000000    0.1583540000000000    0.6320150000000000 S
   0.6070110000000000    0.6070110000000000    0.1503229999999990 S
   0.3926429999999990    0.3926429999999990    0.8484760000000000 S
   0.8629070000000000    0.8629070000000000    0.1167370000000000 S
   0.1395020000000000    0.1395020000000000    0.8822169999999990 S
   0.2352149999999990    0.2352149999999990    0.1093040000000000 S
   0.7652540000000000    0.7652540000000000    0.8907830000000000 S
   0.4749580000000000    0.4749580000000000    0.1492800000000000 S
