K6 Sb14 S6 O18
1.0
   7.3004309999999997  -12.6447170000000000    0.0000000000000000
   7.3004309999999997   12.6447170000000000    0.0000000000000000
   0.0000000000000000    0.0000000000000000    5.7213459999999996
K Sb S O
6 14 6 18
direct
   0.7048559999999990    0.8966620000000000    0.6400760000000000 K
   0.1918060000000000    0.2951439999999990    0.6400760000000000 K
   0.2951439999999990    0.1033380000000000    0.1400760000000000 K
   0.8966620000000000    0.1918060000000000    0.1400760000000000 K
   0.8081940000000000    0.7048559999999990    0.1400760000000000 K
   0.1033380000000000    0.8081940000000000    0.6400760000000000 K
   0.5541650000000000    0.7200829999999990    0.1462930000000000 Sb
   0.8340820000000000    0.5541650000000000    0.6462930000000000 Sb
   0.5995700000000000    0.9854069999999990    0.1358190000000000 Sb
   0.0145930000000000    0.6141630000000000    0.1358190000000000 Sb
   0.4004300000000000    0.0145930000000000    0.6358190000000000 Sb
   0.3858370000000000    0.4004300000000000    0.1358190000000000 Sb
   0.2799169999999990    0.8340820000000000    0.1462930000000000 Sb
   0.9854069999999990    0.3858370000000000    0.6358190000000000 Sb
   0.6141630000000000    0.5995700000000000    0.6358190000000000 Sb
   0.4458350000000000    0.2799169999999990    0.6462930000000000 Sb
   0.1659179999999990    0.4458350000000000    0.1462930000000000 Sb
   0.7200829999999990    0.1659179999999990    0.6462930000000000 Sb
   0.6666670000000000    0.3333330000000000    0.2461200000000000 Sb
   0.3333330000000000    0.6666670000000000    0.7461200000000000 Sb
   0.6268200000000000    0.4622600000000001    0.0694470000000000 S
   0.4622600000000001    0.8354400000000001    0.5694469999999990 S
   0.3731800000000000    0.5377400000000000    0.5694469999999990 S
   0.5377400000000000    0.1645600000000000    0.0694470000000000 S
   0.1645600000000000    0.6268200000000000    0.5694469999999990 S
   0.8354400000000001    0.3731800000000000    0.0694470000000000 S
   0.8770720000000000    0.2273220000000000    0.6272260000000000 O
   0.0631740000000000    0.3578030000000000    0.8896560000000000 O
   0.3502510000000000    0.1229280000000000    0.6272260000000000 O
   0.6497490000000000    0.8770720000000000    0.1272260000000000 O
   0.6484160000000000    0.7128580000000000    0.3904760000000000 O
   0.6421970000000000    0.7053710000000000    0.8896560000000000 O
   0.3578030000000000    0.2946290000000000    0.3896560000000000 O
   0.3515840000000000    0.2871420000000000    0.8904759999999990 O
   0.2871420000000000    0.9355589999999990    0.3904760000000000 O
   0.0644410000000000    0.3515840000000000    0.3904760000000000 O
   0.7726780000000000    0.6497490000000000    0.6272260000000000 O
   0.1229280000000000    0.7726780000000000    0.1272260000000000 O
   0.7053710000000000    0.0631740000000000    0.3896560000000000 O
   0.2273220000000000    0.3502510000000000    0.1272260000000000 O
   0.7128580000000000    0.0644410000000000    0.8904759999999990 O
   0.9368259999999990    0.6421970000000000    0.3896560000000000 O
   0.9355589999999990    0.6484160000000000    0.8904759999999990 O
   0.2946290000000000    0.9368259999999990    0.8896560000000000 O
