Co4 Bi24 S8 O64
1.0
   0.0000090000000000   -5.6649219999999998   -0.0020930000000000
  11.6898140000000001    0.0002000000000000    1.0887190000000000
  -0.0656009999999990    0.0094869999999990   22.7889020000000002
Co Bi S O
4 24 8 64
direct
   0.1081630000000000    0.0001080000000000    0.5000880000000000 Co
   0.6044510000000000    0.5000490000000000    0.7499840000000000 Co
   0.1068689999999990    0.9997649999999991    0.9998950000000000 Co
   0.6518619999999991    0.5007540000000000    0.2499350000000000 Co
   0.1236790000000000    0.6539570000000000    0.4971730000000000 Bi
   0.6250040000000000    0.1539549999999990    0.7469310000000000 Bi
   0.1235370000000000    0.6538229999999990    0.9963010000000000 Bi
   0.6234240000000000    0.1544039999999990    0.2471320000000000 Bi
   0.1232500000000000    0.3463690000000000    0.5037290000000000 Bi
   0.6252150000000000    0.8460620000000000    0.7532719999999991 Bi
   0.1244440000000000    0.3460830000000000    0.0028350000000000 Bi
   0.6238429999999990    0.8459359999999990    0.2528170000000000 Bi
   0.6271900000000000    0.5210129999999999    0.5853690000000000 Bi
   0.1284170000000000    0.0214250000000000    0.8355349999999990 Bi
   0.6258429999999990    0.5217390000000000    0.0856970000000000 Bi
   0.1270820000000000    0.0205720000000000    0.3355780000000000 Bi
   0.6252789999999990    0.4780390000000000    0.4139810000000000 Bi
   0.1280600000000000    0.9784000000000000    0.6645249999999990 Bi
   0.6274370000000000    0.4789049999999990    0.9144780000000000 Bi
   0.1262869999999990    0.9795029999999991    0.1645690000000000 Bi
   0.0486679999999990    0.3380430000000000    0.3357480000000000 Bi
   0.5472129999999999    0.8390600000000000    0.5846260000000000 Bi
   0.0469400000000000    0.3396960000000000    0.8342740000000000 Bi
   0.5465280000000000    0.8396540000000000    0.0844370000000000 Bi
   0.0466440000000000    0.6602359999999990    0.6657660000000000 Bi
   0.5476369999999990    0.1607269999999990    0.9155400000000000 Bi
   0.0501910000000000    0.6620830000000000    0.1641030000000000 Bi
   0.5468750000000000    0.1607360000000000    0.4154569999999990 Bi
   0.6753680000000000    0.8490759999999991    0.4331600000000000 S
   0.1766080000000000    0.3480930000000000    0.6828839999999990 S
   0.6763910000000000    0.8489270000000000    0.9330309999999991 S
   0.1805010000000000    0.3542070000000000    0.1853510000000000 S
   0.6767550000000000    0.1508530000000000    0.5667240000000000 S
   0.1766859999999990    0.6518760000000000    0.8172100000000001 S
   0.6766759999999991    0.1514360000000000    0.0667929999999990 S
   0.1779879999999990    0.6455480000000000    0.3148269999999990 S
   0.8787600000000001    0.5003480000000000    0.5002030000000000 O
   0.3798240000000000    0.0000620000000000    0.7500880000000000 O
   0.8791589999999990    0.4997760000000000    0.9997959999999991 O
   0.3788410000000000    0.0000180000000000    0.2499460000000000 O
   0.3593900000000000    0.5001230000000000    0.5001679999999999 O
   0.8609049999999990    0.0000530000000000    0.7500380000000000 O
   0.3600510000000000    0.5000990000000000    0.9999209999999999 O
   0.8590420000000000    0.0000010000000000    0.2498200000000000 O
   0.9003960000000000    0.8783519999999990    0.4642310000000000 O
   0.4020809999999990    0.3765100000000000    0.7141210000000000 O
   0.9028760000000000    0.8770140000000000    0.9638620000000000 O
   0.4036309999999990    0.3820000000000000    0.2168340000000000 O
   0.9032030000000000    0.1227040000000000    0.5360239999999999 O
   0.4020809999999990    0.6233569999999991    0.7860720000000000 O
   0.9011859999999990    0.1229150000000000    0.0352979999999990 O
   0.4022469999999990    0.6176269999999990    0.2839379999999990 O
   0.4712139999999990    0.8651829999999990    0.4738350000000000 O
   0.9726669999999999    0.3648349999999990    0.7234910000000000 O
   0.4734870000000000    0.8662980000000000    0.9738749999999990 O
   0.9718120000000000    0.3738700000000000    0.2249189999999990 O
   0.4736590000000000    0.1329670000000000    0.5259280000000000 O
   0.9726610000000000    0.6351430000000000    0.7765909999999990 O
   0.4716500000000000    0.1350150000000000    0.0263750000000000 O
   0.9706659999999990    0.6254990000000000    0.2747250000000000 O
   0.6903659999999990    0.7290540000000000    0.4196880000000000 O
   0.1901110000000000    0.2280609999999990    0.6693620000000000 O
   0.6882769999999990    0.7287230000000000    0.9196810000000000 O
   0.1873439999999990    0.2329870000000000    0.1732640000000000 O
   0.6882420000000000    0.2712430000000000    0.5797620000000000 O
   0.1902370000000000    0.7718959999999990    0.8307600000000001 O
   0.6910620000000000    0.2714080000000000    0.0804000000000000 O
   0.1835870000000000    0.7668579999999990    0.3266670000000000 O
   0.1496450000000000    0.4293630000000000    0.6286840000000000 O
   0.6488109999999990    0.9299569999999990    0.8787560000000000 O
   0.1550959999999990    0.4333360000000000    0.1301560000000000 O
   0.6467010000000000    0.9301090000000000    0.3788789999999990 O
   0.1511760000000000    0.5666630000000000    0.3700219999999990 O
   0.6494160000000000    0.0702270000000000    0.6211430000000000 O
   0.1497679999999990    0.5706129999999990    0.8714480000000000 O
   0.6502640000000000    0.0700620000000000    0.1209760000000000 O
   0.6998610000000000    0.5850949999999990    0.6774009999999990 O
   0.2008569999999990    0.0854689999999990    0.9272459999999991 O
   0.6985340000000000    0.5884600000000001    0.1761240000000000 O
   0.1998829999999990    0.0852840000000000    0.4270460000000000 O
   0.6962590000000000    0.4108560000000000    0.3239050000000000 O
   0.1999939999999990    0.9140790000000000    0.5729080000000000 O
   0.7000520000000000    0.4149110000000000    0.8226249999999991 O
   0.1990029999999990    0.9145359999999990    0.0728530000000000 O
   0.8891589999999990    0.6656830000000000    0.5745520000000000 O
   0.3900349999999990    0.1659880000000000    0.8242940000000000 O
   0.8878039999999990    0.6663319999999990    0.0735089999999990 O
   0.3882279999999990    0.1651800000000000    0.3243109999999990 O
   0.8872359999999990    0.3336380000000000    0.4265390000000000 O
   0.3900559999999990    0.8340660000000000    0.6758930000000000 O
   0.8896330000000000    0.3343710000000000    0.9254749999999990 O
   0.3885600000000000    0.8348880000000000    0.1755779999999990 O
   0.3841580000000000    0.6713129999999990    0.5738670000000000 O
   0.8847470000000000    0.1717420000000000    0.8237190000000000 O
   0.3824349999999990    0.6718860000000000    0.0734450000000000 O
   0.8844489999999990    0.1705219999999990    0.3237120000000000 O
   0.3816230000000000    0.3281969999999990    0.4265589999999990 O
   0.8846339999999990    0.8282079999999991    0.6764880000000000 O
   0.3845230000000000    0.3286040000000000    0.9262089999999999 O
   0.8845390000000000    0.8292520000000000    0.1762400000000000 O
