Zn3 Cu6 As4 S12
1.0
   8.3554999999999993    0.0000000000000000    0.0000000000000000
  -2.4747400000000002    8.0410149999999998    0.0000000000000000
  -2.5303390000000001   -3.4395549999999999    7.2724120000000001
Zn Cu As S
3 6 4 12
direct
   0.4029530000000000    0.1694110000000000    0.4597610000000000 Zn
   0.0720430000000000    0.2173129999999990    0.7032079999999991 Zn
   0.2290809999999990    0.7026640000000000    0.0748730000000000 Zn
   0.1660170000000000    0.4556380000000000    0.3933800000000000 Cu
   0.4584069999999990    0.3985500000000000    0.1689050000000000 Cu
   0.7056290000000000    0.0746550000000000    0.2188300000000000 Cu
   0.2973110000000000    0.9092389999999990    0.7618020000000000 Cu
   0.9091110000000000    0.7605710000000000    0.3036149999999990 Cu
   0.7627000000000000    0.3006550000000000    0.9146960000000000 Cu
   0.9746920000000000    0.9855450000000000    0.9783539999999999 As
   0.5640300000000000    0.6228610000000000    0.8508680000000000 As
   0.6208540000000000    0.8419580000000000    0.5564890000000000 As
   0.8420620000000000    0.5621659999999991    0.6143100000000000 As
   0.2237890000000000    0.1327239999999990    0.9254580000000000 S
   0.1267869999999990    0.9170090000000000    0.2167740000000000 S
   0.9202650000000000    0.2210270000000000    0.1346800000000000 S
   0.2919500000000000    0.3663960000000000    0.6103870000000000 S
   0.3632729999999990    0.6096370000000000    0.2966990000000000 S
   0.6172860000000000    0.2946350000000000    0.3580890000000000 S
   0.4498640000000000    0.8250440000000000    0.9781920000000000 S
   0.8144650000000000    0.9764250000000000    0.4401090000000000 S
   0.9747450000000000    0.4448840000000000    0.8213039999999990 S
   0.5095220000000000    0.0523530000000000    0.6683359999999990 S
   0.0521839999999990    0.6610969999999990    0.5078440000000000 S
   0.6625789999999990    0.5091439999999990    0.0546349999999990 S
