Sb16 S24 O96
1.0
   9.0726130000000005    0.0000000000000000    0.0000000000000000
   0.0000000000000000    9.2325859999999995    0.0000000000000000
   0.0000000000000000    0.0000000000000000   25.4540460000000017
Sb S O
16 24 96
direct
   0.0038039999999990    0.3807160000000000    0.0633509999999990 Sb
   0.0038039999999990    0.1192840000000000    0.5633509999999990 Sb
   0.9909829999999999    0.8040379999999990    0.1796019999999990 Sb
   0.9909829999999999    0.6959620000000000    0.6796019999999990 Sb
   0.5090169999999991    0.3040380000000000    0.1796019999999990 Sb
   0.5090169999999991    0.1959620000000000    0.6796019999999990 Sb
   0.4961959999999990    0.6192839999999999    0.5633509999999990 Sb
   0.4961959999999990    0.8807159999999991    0.0633509999999990 Sb
   0.5038040000000000    0.3807160000000000    0.4366489999999990 Sb
   0.5038040000000000    0.1192840000000000    0.9366490000000000 Sb
   0.4909830000000000    0.6959620000000000    0.8203980000000000 Sb
   0.4909830000000000    0.8040379999999990    0.3203979999999990 Sb
   0.0090169999999990    0.3040380000000000    0.3203979999999990 Sb
   0.0090169999999990    0.1959620000000000    0.8203980000000000 Sb
   0.9961960000000000    0.8807159999999991    0.4366489999999990 Sb
   0.9961960000000000    0.6192839999999999    0.9366490000000000 Sb
   0.1440890000000000    0.9448869999999990    0.2971560000000000 S
   0.1440890000000000    0.5551130000000000    0.7971560000000000 S
   0.1488700000000000    0.2636770000000000    0.4497390000000000 S
   0.1488700000000000    0.2363229999999990    0.9497390000000000 S
   0.1904720000000000    0.0875910000000000    0.1163260000000000 S
   0.1904720000000000    0.4124089999999990    0.6163259999999990 S
   0.3095279999999990    0.5875910000000000    0.1163260000000000 S
   0.3095279999999990    0.9124089999999990    0.6163259999999990 S
   0.3511300000000001    0.7636769999999991    0.4497390000000000 S
   0.3511300000000001    0.7363229999999999    0.9497390000000000 S
   0.3559110000000000    0.4448870000000000    0.2971560000000000 S
   0.3559110000000000    0.0551129999999990    0.7971560000000000 S
   0.6440890000000000    0.5551130000000000    0.7028439999999990 S
   0.6440890000000000    0.9448869999999990    0.2028440000000000 S
   0.6488700000000001    0.2636770000000000    0.0502610000000000 S
   0.6488700000000001    0.2363229999999990    0.5502610000000000 S
   0.6904720000000000    0.0875910000000000    0.3836739999999990 S
   0.6904720000000000    0.4124089999999990    0.8836740000000000 S
   0.8095279999999990    0.5875910000000000    0.3836739999999990 S
   0.8095279999999990    0.9124089999999990    0.8836740000000000 S
   0.8511300000000001    0.7636769999999991    0.0502610000000000 S
   0.8511300000000001    0.7363229999999999    0.5502610000000000 S
   0.8559110000000000    0.4448870000000000    0.2028440000000000 S
   0.8559110000000000    0.0551129999999990    0.7028439999999990 S
   0.0716410000000000    0.3967920000000000    0.4598939999999990 O
   0.0716410000000000    0.1032080000000000    0.9598939999999990 O
   0.0938600000000000    0.0903060000000000    0.2799069999999990 O
   0.0938600000000000    0.4096940000000000    0.7799070000000000 O
   0.0852840000000000    0.1364300000000000    0.4829930000000000 O
   0.0852840000000000    0.3635700000000000    0.9829930000000000 O
   0.0899809999999990    0.9059680000000000    0.3497659999999990 O
   0.0899809999999990    0.5940320000000000    0.8497659999999990 O
   0.0891420000000000    0.1787689999999990    0.0818020000000000 O
   0.0891420000000000    0.3212310000000000    0.5818019999999990 O
   0.0934860000000000    0.8317970000000000    0.2589050000000000 O
   0.0934860000000000    0.6682030000000000    0.7589049999999991 O
   0.0947310000000000    0.0155600000000000    0.1561840000000000 O
   0.0947310000000000    0.4844400000000000    0.6561840000000000 O
   0.1394190000000000    0.2126300000000000    0.3940840000000000 O
   0.1394190000000000    0.2873700000000000    0.8940840000000000 O
   0.1889209999999990    0.4473339999999990    0.2968800000000000 O
   0.1889209999999990    0.0526660000000000    0.7968800000000000 O
   0.2022550000000000    0.6804720000000000    0.1434480000000000 O
   0.2022550000000000    0.8195279999999990    0.6434480000000000 O
   0.1902579999999990    0.7665639999999990    0.4657909999999990 O
   0.1902579999999990    0.7334360000000000    0.9657910000000000 O
   0.2400800000000000    0.0189500000000000    0.5809569999999999 O
   0.2400800000000000    0.4810500000000000    0.0809570000000000 O
   0.2599200000000000    0.5189500000000000    0.5809569999999999 O
   0.2599200000000000    0.9810500000000001    0.0809570000000000 O
   0.3097419999999990    0.2334359999999990    0.9657910000000000 O
   0.3097419999999990    0.2665639999999990    0.4657909999999990 O
   0.2977450000000000    0.1804720000000000    0.1434480000000000 O
   0.2977450000000000    0.3195280000000000    0.6434480000000000 O
   0.3110790000000000    0.9473340000000000    0.2968800000000000 O
   0.3110790000000000    0.5526660000000000    0.7968800000000000 O
   0.3605810000000000    0.7126300000000001    0.3940840000000000 O
   0.3605810000000000    0.7873700000000000    0.8940840000000000 O
   0.4052690000000000    0.9844400000000001    0.6561840000000000 O
   0.4052690000000000    0.5155600000000000    0.1561840000000000 O
   0.4065140000000000    0.3317970000000000    0.2589050000000000 O
   0.4065140000000000    0.1682030000000000    0.7589049999999991 O
   0.4108580000000000    0.6787690000000000    0.0818020000000000 O
   0.4108580000000000    0.8212309999999990    0.5818019999999990 O
   0.4100189999999990    0.0940319999999990    0.8497659999999990 O
   0.4100189999999990    0.4059680000000000    0.3497659999999990 O
   0.4147160000000000    0.8635700000000001    0.9829930000000000 O
   0.4147160000000000    0.6364300000000001    0.4829930000000000 O
   0.4061400000000001    0.5903060000000000    0.2799069999999990 O
   0.4061400000000001    0.9096940000000000    0.7799070000000000 O
   0.4283590000000000    0.6032080000000000    0.9598939999999990 O
   0.4283590000000000    0.8967919999999990    0.4598939999999990 O
   0.5716410000000000    0.3967920000000000    0.0401059999999990 O
   0.5716410000000000    0.1032080000000000    0.5401060000000000 O
   0.5938600000000001    0.0903060000000000    0.2200929999999990 O
   0.5938600000000001    0.4096940000000000    0.7200930000000000 O
   0.5852840000000000    0.1364300000000000    0.0170069999999990 O
   0.5852840000000000    0.3635700000000000    0.5170070000000000 O
   0.5899810000000000    0.5940320000000000    0.6502340000000000 O
   0.5899810000000000    0.9059680000000000    0.1502340000000000 O
   0.5891419999999991    0.1787689999999990    0.4181979999999990 O
   0.5891419999999991    0.3212310000000000    0.9181980000000000 O
   0.5934860000000000    0.8317970000000000    0.2410949999999990 O
   0.5934860000000000    0.6682030000000000    0.7410949999999999 O
   0.5947310000000000    0.0155600000000000    0.3438160000000000 O
   0.5947310000000000    0.4844400000000000    0.8438160000000000 O
   0.6394190000000000    0.2126300000000000    0.1059160000000000 O
   0.6394190000000000    0.2873700000000000    0.6059160000000000 O
   0.6889210000000000    0.4473339999999990    0.2031200000000000 O
   0.6889210000000000    0.0526660000000000    0.7031200000000001 O
   0.7022550000000000    0.6804720000000000    0.3565520000000000 O
   0.7022550000000000    0.8195279999999990    0.8565520000000000 O
   0.6902579999999990    0.7665639999999990    0.0342089999999990 O
   0.6902579999999990    0.7334360000000000    0.5342089999999990 O
   0.7400800000000001    0.4810500000000000    0.4190430000000000 O
   0.7400800000000001    0.0189500000000000    0.9190429999999991 O
   0.7599200000000000    0.9810500000000001    0.4190430000000000 O
   0.7599200000000000    0.5189500000000000    0.9190429999999991 O
   0.8097420000000000    0.2665639999999990    0.0342089999999990 O
   0.8097420000000000    0.2334359999999990    0.5342089999999990 O
   0.7977449999999990    0.1804720000000000    0.3565520000000000 O
   0.7977449999999990    0.3195280000000000    0.8565520000000000 O
   0.8110790000000000    0.5526660000000000    0.7031200000000001 O
   0.8110790000000000    0.9473340000000000    0.2031200000000000 O
   0.8605809999999990    0.7126300000000001    0.1059160000000000 O
   0.8605809999999990    0.7873700000000000    0.6059160000000000 O
   0.9052690000000000    0.5155600000000000    0.3438160000000000 O
   0.9052690000000000    0.9844400000000001    0.8438160000000000 O
   0.9065139999999990    0.3317970000000000    0.2410949999999990 O
   0.9065139999999990    0.1682030000000000    0.7410949999999999 O
   0.9108579999999999    0.6787690000000000    0.4181979999999990 O
   0.9108579999999999    0.8212309999999990    0.9181980000000000 O
   0.9100189999999990    0.4059680000000000    0.1502340000000000 O
   0.9100189999999990    0.0940319999999990    0.6502340000000000 O
   0.9147160000000000    0.6364300000000001    0.0170069999999990 O
   0.9147160000000000    0.8635700000000001    0.5170070000000000 O
   0.9061400000000001    0.5903060000000000    0.2200929999999990 O
   0.9061400000000001    0.9096940000000000    0.7200930000000000 O
   0.9283589999999990    0.6032080000000000    0.5401060000000000 O
   0.9283589999999990    0.8967919999999990    0.0401059999999990 O
