Nd2 Mn3 Sb4 S12
1.0
   1.9430710000000000    9.9790899999999993    0.0000000000000000
  -1.9430710000000000    9.9790899999999993    0.0000000000000000
   0.0000000000000000    8.8123919999999991   11.9823400000000007
Nd Mn Sb S
2 3 4 12
direct
   0.2406329999999990    0.2406329999999990    0.8627100000000001 Nd
   0.7593670000000000    0.7593670000000000    0.1372900000000000 Nd
   0.1981129999999990    0.1981129999999990    0.6213010000000000 Mn
   0.8018870000000000    0.8018870000000000    0.3786990000000000 Mn
   0.0000000000000000    0.0000000000000000    0.0000000000000000 Mn
   0.1066700000000000    0.1066700000000000    0.4513939999999990 Sb
   0.8933300000000001    0.8933300000000001    0.5486059999999990 Sb
   0.4607659999999990    0.4607659999999990    0.8154819999999990 Sb
   0.5392340000000000    0.5392340000000000    0.1845180000000000 Sb
   0.0577810000000000    0.0577810000000000    0.8022279999999991 S
   0.9422189999999990    0.9422189999999990    0.1977720000000000 S
   0.6008570000000000    0.6008570000000000    0.9774680000000000 S
   0.3991429999999990    0.3991429999999990    0.0225320000000000 S
   0.8311679999999990    0.8311679999999990    0.8964300000000001 S
   0.1688319999999990    0.1688319999999990    0.1035700000000000 S
   0.4107840000000000    0.4107840000000000    0.6509860000000000 S
   0.5892160000000000    0.5892160000000000    0.3490140000000000 S
   0.2575150000000000    0.2575150000000000    0.2919239999999990 S
   0.7424850000000000    0.7424850000000000    0.7080759999999990 S
   0.3428520000000000    0.3428520000000000    0.4527489999999990 S
   0.6571480000000000    0.6571480000000000    0.5472509999999990 S
