As4 S4 Xe8 O12 F36
1.0
   9.0461960000000001    0.0000000000000000    0.0000000000000000
   0.0000000000000000   11.4651329999999998    0.0000000000000000
   0.0000000000000000   11.1891099999999994   11.9589250000000007
As S Xe O F
4 4 8 12 36
direct
   0.1883320000000000    0.7447300000000001    0.5623119999999990 As
   0.3116680000000000    0.7447300000000001    0.0623120000000000 As
   0.8116679999999999    0.2552700000000000    0.4376879999999990 As
   0.6883319999999991    0.2552700000000000    0.9376880000000000 As
   0.9066310000000000    0.8241510000000000    0.2685150000000000 S
   0.0933690000000000    0.1758490000000000    0.7314849999999991 S
   0.4066309999999990    0.1758490000000000    0.2314850000000000 S
   0.5933689999999990    0.8241510000000000    0.7685149999999999 S
   0.4179150000000000    0.8300100000000000    0.2922119999999990 Xe
   0.0820849999999990    0.8300100000000000    0.7922119999999990 Xe
   0.8240959999999991    0.7397600000000001    0.1131850000000000 Xe
   0.9179149999999990    0.1699900000000000    0.2077880000000000 Xe
   0.1759040000000000    0.2602400000000000    0.8868149999999990 Xe
   0.5820850000000000    0.1699900000000000    0.7077880000000000 Xe
   0.6759039999999999    0.7397600000000001    0.6131850000000000 Xe
   0.3240960000000000    0.2602400000000000    0.3868149999999990 Xe
   0.4564689999999990    0.8787790000000000    0.7101459999999991 O
   0.7884319999999990    0.7737689999999990    0.2339830000000000 O
   0.6697750000000000    0.9247700000000001    0.7828619999999999 O
   0.2115679999999990    0.2262310000000000    0.7660169999999999 O
   0.5435310000000000    0.1212210000000000    0.2898540000000000 O
   0.9564689999999991    0.1212210000000000    0.7898539999999999 O
   0.8302250000000000    0.9247700000000001    0.2828620000000000 O
   0.3302250000000000    0.0752300000000000    0.2171380000000000 O
   0.1697749999999990    0.0752300000000000    0.7171379999999991 O
   0.2884319999999990    0.2262310000000000    0.2660170000000000 O
   0.7115680000000000    0.7737689999999990    0.7339829999999991 O
   0.0435310000000000    0.8787790000000000    0.2101460000000000 O
   0.4361239999999990    0.3342190000000000    0.1071800000000000 F
   0.6589100000000001    0.7106439999999991    0.5052679999999991 F
   0.6161110000000000    0.1248620000000000    0.9246139999999990 F
   0.2630159999999990    0.6173029999999990    0.5475090000000000 F
   0.7630159999999990    0.3826970000000000    0.9524910000000000 F
   0.8838889999999990    0.1248620000000000    0.4246140000000000 F
   0.3439780000000000    0.8750049999999990    0.4876149999999990 F
   0.0343020000000000    0.6157070000000000    0.6354449999999990 F
   0.5343019999999991    0.3842930000000000    0.8645550000000000 F
   0.2369840000000000    0.6173029999999990    0.0475089999999990 F
   0.9067809999999999    0.1451869999999990    0.5671570000000000 F
   0.5932189999999991    0.1451869999999990    0.0671570000000000 F
   0.3838890000000000    0.8751380000000000    0.0753860000000000 F
   0.1560220000000000    0.8750049999999990    0.9876149999999990 F
   0.1161109999999990    0.8751380000000000    0.5753860000000000 F
   0.9656979999999999    0.3842930000000000    0.3645549999999990 F
   0.8410900000000001    0.7106439999999991    0.0052680000000000 F
   0.2857480000000000    0.6387910000000000    0.6899179999999990 F
   0.2142520000000000    0.6387910000000000    0.1899180000000000 F
   0.0638760000000000    0.3342190000000000    0.6071800000000001 F
   0.5148680000000000    0.3841460000000000    0.6458619999999990 F
   0.7857480000000000    0.3612090000000000    0.8100820000000000 F
   0.6560220000000000    0.1249950000000000    0.5123850000000000 F
   0.4851319999999991    0.6158540000000000    0.3541380000000000 F
   0.3410900000000000    0.2893560000000000    0.4947320000000000 F
   0.4656980000000000    0.6157070000000000    0.1354449999999990 F
   0.0932190000000000    0.8548129999999990    0.4328430000000000 F
   0.1589100000000000    0.2893560000000000    0.9947319999999999 F
   0.0148680000000000    0.6158540000000000    0.8541380000000000 F
   0.7369840000000000    0.3826970000000000    0.4524910000000000 F
   0.9361240000000000    0.6657810000000000    0.3928200000000001 F
   0.5638759999999990    0.6657810000000000    0.8928200000000001 F
   0.9851320000000000    0.3841460000000000    0.1458620000000000 F
   0.7142520000000000    0.3612090000000000    0.3100819999999990 F
   0.8439780000000000    0.1249950000000000    0.0123850000000000 F
   0.4067810000000000    0.8548129999999990    0.9328430000000000 F
