Bi1 Sb3 Te6
1.0
   2.1914980000000002   10.2283500000000007    0.0000000000000000
  -2.1914980000000002   10.2283500000000007    0.0000000000000000
   0.0000000000000000    0.9067660000000000    7.5375189999999996
Bi Sb Te
1 3 6
direct
   0.4021440000000000    0.4021440000000000    0.2001210000000000 Bi
   0.9003580000000000    0.9003580000000000    0.6984030000000000 Sb
   0.0984630000000000    0.0984630000000000    0.3004800000000000 Sb
   0.5999240000000000    0.5999240000000000    0.8002469999999990 Sb
   0.5010910000000000    0.5010910000000000    0.5025250000000000 Te
   0.0020490000000000    0.0020490000000000    0.9966320000000000 Te
   0.8150790000000000    0.8150790000000000    0.4021150000000000 Te
   0.3161270000000000    0.3161270000000000    0.8864649999999999 Te
   0.6827789999999990    0.6827789999999990    0.1068720000000000 Te
   0.1819839999999990    0.1819839999999990    0.6061400000000000 Te
