Hg4 Sb16 S32
1.0
   1.9958387399999999   11.0718315300000008   -0.0414704500000000
  -1.9958387399999999   11.0718315300000008   -0.0414704500000000
  -0.0000000000000000    7.3478916200000004   29.6117281100000014
Hg Sb S
4 16 32
direct
   0.5000000000000000    0.5000000000000000   -0.0000000000000000 Hg
   0.5000000000000000    0.5000000000000000    0.5000000000000000 Hg
   0.0064143900000000   -0.0064143900000000    0.2500000000000000 Hg
  -0.0064143900000000    0.0064143900000000    0.7500000000000000 Hg
   0.8872526300000000    0.9680108500000000    0.1182378600000000 Sb
   0.0319891500000000    0.1127473700000000    0.3817621400000000 Sb
   0.1127473700000000    0.0319891500000000    0.8817621400000000 Sb
   0.9680108500000000    0.8872526300000000    0.6182378600000000 Sb
   0.7320316600000000    0.8360370100000000    0.0428642700000000 Sb
   0.1639629900000000    0.2679683400000000    0.4571357300000000 Sb
   0.2679683400000000    0.1639629900000000    0.9571357300000001 Sb
   0.8360370100000000    0.7320316600000000    0.5428642700000000 Sb
   0.5288505000000000    0.6158397999999990    0.1317661300000000 Sb
   0.3841602000000000    0.4711495000000000    0.3682338700000000 Sb
   0.4711495000000000    0.3841602000000000    0.8682338700000000 Sb
   0.6158397999999990    0.5288505000000000    0.6317661300000000 Sb
   0.6390305700000000    0.7926246400000000    0.2077295800000000 Sb
   0.2073753600000000    0.3609694300000000    0.2922704200000000 Sb
   0.3609694300000000    0.2073753600000000    0.7922704200000000 Sb
   0.7926246400000000    0.6390305700000000    0.7077295800000000 Sb
   0.4168139600000000    0.4019173400000000    0.0592478600000000 S
   0.5980826600000000    0.5831860400000000    0.4407521400000000 S
   0.5831860400000000    0.5980826600000000    0.9407521400000001 S
   0.4019173400000000    0.4168139600000000    0.5592478600000000 S
   0.7938573100000000    0.8390758400000000    0.2291724500000000 S
   0.1609241600000000    0.2061426900000000    0.2708275500000000 S
   0.2061426900000000    0.1609241600000000    0.7708275500000000 S
   0.8390758400000000    0.7938573100000000    0.7291724500000000 S
   0.4596907999999990    0.4636447900000000    0.1713471300000000 S
   0.5363552100000000    0.5403091999999990    0.3286528700000000 S
   0.5403091999999990    0.5363552100000000    0.8286528700000000 S
   0.4636447900000000    0.4596907999999990    0.6713471300000000 S
   0.2639338500000000    0.2895572700000000    0.1483740000000000 S
   0.7104427300000000    0.7360661500000000    0.3516260000000000 S
   0.7360661500000000    0.7104427300000000    0.8516260000000000 S
   0.2895572700000000    0.2639338500000000    0.6483740000000000 S
   0.0946085900000000    0.0863883900000000    0.1906952500000000 S
   0.9136116100000000    0.9053914100000000    0.3093047500000000 S
   0.9053914100000000    0.9136116100000000    0.8093047500000000 S
   0.0863883900000000    0.0946085900000000    0.6906952500000000 S
   0.6718486800000000    0.6956514500000001    0.0206467100000000 S
   0.3043485500000000    0.3281513200000000    0.4793532900000000 S
   0.3281513200000000    0.3043485500000000    0.9793532900000000 S
   0.6956514500000001    0.6718486800000000    0.5206467100000000 S
   0.0368908800000000    0.0396273300000000    0.0786057100000000 S
   0.9603726700000000    0.9631091200000000    0.4213942900000000 S
   0.9631091200000000    0.9603726700000000    0.9213942900000001 S
   0.0396273300000000    0.0368908800000000    0.5786057100000001 S
   0.2349179500000000    0.2104138700000000    0.1017756200000000 S
   0.7895861300000000    0.7650820500000001    0.3982243800000000 S
   0.7650820500000001    0.7895861300000000    0.8982243800000000 S
   0.2104138700000000    0.2349179500000000    0.6017756200000001 S
