Te6 As6 H18 N6 F66
1.0
   6.8397880000000004    0.0000000000000000    0.0000000000000000
   0.0000000000000000   17.6984400000000015    0.0000000000000000
  -3.1579910000000000    0.0000000000000000   11.2475450000000006
Te As H N F
6 6 18 6 66
direct
   0.1648960000000000    0.2500000000000000    0.3357110000000000 Te
   0.8351040000000000    0.7500000000000000    0.6642890000000000 Te
   0.3328540000000000    0.4977609999999991    0.6677219999999990 Te
   0.6671460000000000    0.9977610000000000    0.3322779999999990 Te
   0.6671460000000000    0.5022390000000000    0.3322779999999990 Te
   0.3328540000000000    0.0022390000000000    0.6677219999999990 Te
   0.0000000000000000    0.5000000000000000    0.0000000000000000 As
   0.0000000000000000    0.0000000000000000    0.0000000000000000 As
   0.1578240000000000    0.7500000000000000    0.3060850000000000 As
   0.8421759999999990    0.2500000000000000    0.6939149999999999 As
   0.5038429999999990    0.2500000000000000    0.0136379999999990 As
   0.4961569999999990    0.7500000000000000    0.9863620000000000 As
   0.1705160000000000    0.2500000000000000    0.1095650000000000 H
   0.8294840000000000    0.7500000000000000    0.8904350000000000 H
   0.9635370000000000    0.2019050000000000    0.1219170000000000 H
   0.0364629999999990    0.7019050000000000    0.8780829999999999 H
   0.0364629999999990    0.7980950000000000    0.8780829999999999 H
   0.9635370000000000    0.2980950000000000    0.1219170000000000 H
   0.5203050000000000    0.3967529999999990    0.8248010000000000 H
   0.4796950000000000    0.8967529999999990    0.1751990000000000 H
   0.4796950000000000    0.6032470000000000    0.1751990000000000 H
   0.5203050000000000    0.1032469999999990    0.8248010000000000 H
   0.2780840000000000    0.3656689999999990    0.7586039999999999 H
   0.7219160000000000    0.8656689999999990    0.2413960000000000 H
   0.7219160000000000    0.6343310000000000    0.2413960000000000 H
   0.2780840000000000    0.1343310000000000    0.7586039999999999 H
   0.3168430000000000    0.4320800000000000    0.8663540000000000 H
   0.6831570000000000    0.9320800000000000    0.1336460000000000 H
   0.6831570000000000    0.5679200000000001    0.1336460000000000 H
   0.3168430000000000    0.0679200000000000    0.8663540000000000 H
   0.0513230000000000    0.2500000000000000    0.1488860000000000 N
   0.9486770000000000    0.7500000000000000    0.8511139999999990 N
   0.3685190000000000    0.4118690000000000    0.7964100000000001 N
   0.6314810000000000    0.9118689999999990    0.2035900000000000 N
   0.6314810000000000    0.5881310000000000    0.2035900000000000 N
   0.3685190000000000    0.0881310000000000    0.7964100000000001 N
   0.2648709999999990    0.2500000000000000    0.4992950000000000 F
   0.7351289999999990    0.7500000000000000    0.5007050000000000 F
   0.3475580000000000    0.3249200000000000    0.3194820000000000 F
   0.6524420000000000    0.8249200000000001    0.6805180000000000 F
   0.6524420000000000    0.6750800000000000    0.6805180000000000 F
   0.3475580000000000    0.1750800000000000    0.3194820000000000 F
   0.9764300000000001    0.3250010000000000    0.3420880000000000 F
   0.0235700000000000    0.8250010000000000    0.6579119999999991 F
   0.0235700000000000    0.6749990000000000    0.6579119999999991 F
   0.9764300000000001    0.1749990000000000    0.3420880000000000 F
   0.3680020000000000    0.5682039999999990    0.7900250000000000 F
   0.6319979999999999    0.0682040000000000    0.2099750000000000 F
   0.6319979999999999    0.4317959999999990    0.2099750000000000 F
   0.3680020000000000    0.9317960000000000    0.7900250000000000 F
   0.2996930000000000    0.4226100000000000    0.5512030000000000 F
   0.7003070000000000    0.9226100000000000    0.4487970000000000 F
   0.7003070000000000    0.5773900000000001    0.4487970000000000 F
   0.2996930000000000    0.0773900000000000    0.5512030000000000 F
   0.0542309999999990    0.4954659999999990    0.6521359999999990 F
   0.9457690000000000    0.9954660000000000    0.3478640000000000 F
   0.9457690000000000    0.5045339999999990    0.3478640000000000 F
   0.0542309999999990    0.0045340000000000    0.6521359999999990 F
   0.6121430000000000    0.4961009999999990    0.6861929999999991 F
   0.3878570000000000    0.9961009999999991    0.3138070000000000 F
   0.3878570000000000    0.5038990000000000    0.3138070000000000 F
   0.6121430000000000    0.0038989999999990    0.6861929999999991 F
   0.2984159999999990    0.5724730000000000    0.5527080000000000 F
   0.7015840000000000    0.0724730000000000    0.4472919999999990 F
   0.7015840000000000    0.4275270000000000    0.4472919999999990 F
   0.2984159999999990    0.9275270000000000    0.5527080000000000 F
   0.9922019999999990    0.4364840000000000    0.8816579999999991 F
   0.0077979999999990    0.9364840000000000    0.1183419999999990 F
   0.0077979999999990    0.5635160000000000    0.1183419999999990 F
   0.9922019999999990    0.0635160000000000    0.8816579999999991 F
   0.2697029999999990    0.5059000000000000    0.0257510000000000 F
   0.7302970000000000    0.0059000000000000    0.9742489999999990 F
   0.7302970000000000    0.4941000000000000    0.9742489999999990 F
   0.2697029999999990    0.9941000000000001    0.0257510000000000 F
   0.0303720000000000    0.4230410000000000    0.1010650000000000 F
   0.9696279999999990    0.9230410000000000    0.8989349999999990 F
   0.9696279999999990    0.5769590000000000    0.8989349999999990 F
   0.0303720000000000    0.0769590000000000    0.1010650000000000 F
   0.0619800000000000    0.7500000000000000    0.1502280000000000 F
   0.9380200000000001    0.2500000000000000    0.8497720000000000 F
   0.9753280000000000    0.6787810000000000    0.3169440000000000 F
   0.0246720000000000    0.1787810000000000    0.6830560000000000 F
   0.0246720000000000    0.3212190000000000    0.6830560000000000 F
   0.9753280000000000    0.8212189999999990    0.3169440000000000 F
   0.3356830000000000    0.6782810000000000    0.2970790000000000 F
   0.6643169999999990    0.1782810000000000    0.7029210000000000 F
   0.6643169999999990    0.3217190000000000    0.7029210000000000 F
   0.3356830000000000    0.8217190000000000    0.2970790000000000 F
   0.2497889999999990    0.7500000000000000    0.4622230000000000 F
   0.7502110000000000    0.2500000000000000    0.5377769999999999 F
   0.6187520000000000    0.2500000000000000    0.1688710000000000 F
   0.3812480000000000    0.7500000000000000    0.8311290000000000 F
   0.3280110000000000    0.3200469999999990    0.0318030000000000 F
   0.6719889999999999    0.8200470000000000    0.9681970000000000 F
   0.6719889999999999    0.6799529999999990    0.9681970000000000 F
   0.3280110000000000    0.1799530000000000    0.0318030000000000 F
   0.6752239999999990    0.3219820000000000    0.9968089999999999 F
   0.3247760000000000    0.8219820000000000    0.0031910000000000 F
   0.3247760000000000    0.6780180000000000    0.0031910000000000 F
   0.6752239999999990    0.1780179999999990    0.9968089999999999 F
   0.3938870000000000    0.2500000000000000    0.8578270000000000 F
   0.6061130000000000    0.7500000000000000    0.1421730000000000 F
