Sb2 H6 S2 O8 F12
1.0
   5.2902009999999997    0.0000000000000000    0.0000000000000000
   0.1492720000000000    8.1782350000000008    0.0000000000000000
   2.5291389999999998    0.4544030000000000    9.6913499999999999
Sb H S O F
2 6 2 8 12
direct
   0.8657960000000000    0.7471590000000000    0.6834700000000000 Sb
   0.1342040000000000    0.2528410000000000    0.3165300000000000 Sb
   0.3970800000000000    0.7410030000000000    0.4104410000000000 H
   0.6029200000000000    0.2589970000000000    0.5895589999999991 H
   0.7998649999999990    0.5436120000000000    0.1735350000000000 H
   0.2001349999999990    0.4563879999999990    0.8264650000000000 H
   0.8168310000000000    0.9798049999999990    0.1803540000000000 H
   0.1831690000000000    0.0201949999999990    0.8196460000000000 H
   0.5702280000000000    0.7675649999999991    0.1908079999999990 S
   0.4297720000000000    0.2324350000000000    0.8091919999999990 S
   0.5752680000000000    0.7594620000000000    0.3436740000000000 O
   0.4247320000000000    0.2405380000000000    0.6563260000000000 O
   0.6668980000000000    0.6027549999999990    0.1305300000000000 O
   0.3331020000000000    0.3972449999999990    0.8694700000000001 O
   0.7969440000000000    0.8823369999999990    0.1243919999999990 O
   0.2030560000000000    0.1176629999999990    0.8756079999999991 O
   0.3257460000000000    0.8080039999999999    0.1641270000000000 O
   0.6742540000000000    0.1919960000000000    0.8358730000000000 O
   0.1322050000000000    0.7058310000000000    0.5160910000000000 F
   0.8677950000000000    0.2941690000000000    0.4839090000000000 F
   0.9977360000000000    0.5570970000000000    0.7706339999999990 F
   0.0022640000000000    0.4429030000000000    0.2293660000000000 F
   0.1241689999999990    0.8751970000000000    0.7401550000000000 F
   0.8758309999999990    0.1248030000000000    0.2598450000000000 F
   0.6376919999999990    0.6054889999999991    0.6250580000000000 F
   0.3623079999999990    0.3945110000000000    0.3749420000000000 F
   0.6184780000000000    0.7858560000000000    0.8527169999999999 F
   0.3815220000000000    0.2141440000000000    0.1472830000000000 F
   0.7464910000000000    0.9338559999999990    0.5961270000000000 F
   0.2535090000000000    0.0661440000000000    0.4038730000000000 F
