Li12 Sb4 S12
1.0
   6.7873634400000000    0.0000000000000000    0.0000000000000000
   0.0000000000000000    7.9618937200000000    0.0000000000000000
   0.0000000000000000    0.0000000000000000   10.1047038300000001
Li Sb S
12 4 12
direct
   0.5418647900000000    0.5580117300000000    0.2746022800000000 Li
   0.4581352100000000    0.4419882700000000    0.7746022800000000 Li
   0.0418647900000000    0.9419882700000001    0.7746022800000000 Li
   0.9581352100000000    0.0580117300000000    0.2746022800000000 Li
   0.1545849400000000    0.4109649700000000    0.3177889400000000 Li
   0.8454150600000000    0.5890350300000000    0.8177889400000000 Li
   0.6545849400000000    0.0890350300000000    0.8177889400000000 Li
   0.3454150600000000    0.9109649700000000    0.3177889400000000 Li
   0.1260447600000000    0.2578782100000000    0.6152852400000001 Li
   0.8739552400000000    0.7421217900000000    0.1152852400000000 Li
   0.6260447600000000    0.2421217900000000    0.1152852400000000 Li
   0.3739552400000000    0.7578782100000000    0.6152852400000001 Li
   0.6060156400000000    0.2347546999999990    0.5000621400000000 Sb
   0.3939843600000000    0.7652453000000000    0.0000621400000000 Sb
   0.1060156400000000    0.2652452999999990    0.0000621400000000 Sb
   0.8939843600000000    0.7347547000000000    0.5000621400000000 Sb
   0.8048641900000000    0.3379922900000000    0.3161842600000000 S
   0.1951358100000000    0.6620077100000000    0.8161842600000000 S
   0.3048641900000000    0.1620077100000000    0.8161842600000000 S
   0.6951358100000000    0.8379922900000000    0.3161842600000000 S
   0.3636272100000000    0.4643188400000000    0.5083415800000000 S
   0.6363727900000000    0.5356811600000000    0.0083415800000000 S
   0.8636272100000000    0.0356811600000000    0.0083415800000000 S
   0.1363727900000000    0.9643188400000000    0.5083415800000000 S
   0.7974005800000000    0.3218660500000000    0.6934355500000000 S
   0.2025994200000000    0.6781339500000000    0.1934355500000000 S
   0.2974005800000000    0.1781339500000000    0.1934355500000000 S
   0.7025994200000000    0.8218660500000000    0.6934355500000000 S
