As4 S16 N20 F24
1.0
   6.7554439999999998    0.0000000000000000    0.0000000000000000
   0.0000000000000000   12.2272069999999999    0.0000000000000000
   0.0000000000000000    1.2608690000000000   12.8831539999999993
As S N F
4 16 20 24
direct
   0.1552909999999990    0.0000000000000000    0.2500000000000000 As
   0.9278569999999990    0.5000000000000000    0.2500000000000000 As
   0.0721430000000000    0.5000000000000000    0.7500000000000000 As
   0.8447089999999990    0.0000000000000000    0.7500000000000000 As
   0.1934570000000000    0.8049149999999990    0.5480760000000000 S
   0.6424510000000000    0.3615620000000000    0.5651659999999999 S
   0.5868519999999990    0.2715440000000000    0.9167230000000000 S
   0.3575490000000000    0.6384379999999999    0.4348340000000000 S
   0.8065430000000000    0.1950849999999990    0.4519240000000000 S
   0.8065430000000000    0.8049149999999990    0.0480760000000000 S
   0.3285760000000000    0.7842030000000000    0.8693540000000000 S
   0.1934570000000000    0.1950849999999990    0.9519240000000000 S
   0.3285760000000000    0.2157970000000000    0.6306459999999990 S
   0.4131479999999990    0.7284560000000000    0.0832769999999990 S
   0.5868519999999990    0.7284560000000000    0.5832769999999990 S
   0.3575490000000000    0.3615620000000000    0.0651660000000000 S
   0.4131479999999990    0.2715440000000000    0.4167229999999990 S
   0.6714240000000000    0.7842030000000000    0.3693539999999990 S
   0.6714240000000000    0.2157970000000000    0.1306459999999990 S
   0.6424510000000000    0.6384379999999999    0.9348339999999991 S
   0.3971969999999990    0.1843209999999990    0.8962880000000000 N
   0.8235040000000000    0.7293130000000000    0.9579050000000000 N
   0.7083790000000000    0.1961250000000000    0.0143889999999990 N
   0.8235040000000000    0.2706870000000000    0.5420950000000000 N
   0.1764960000000000    0.7293130000000000    0.4579050000000000 N
   0.7083790000000000    0.8038750000000000    0.4856109999999990 N
   0.4892640000000000    0.7140170000000000    0.3413740000000000 N
   0.5107360000000000    0.2859830000000000    0.6586259999999990 N
   0.5030620000000000    0.6203460000000000    0.0373929999999990 N
   0.1764960000000000    0.2706870000000000    0.0420950000000000 N
   0.2916209999999990    0.1961250000000000    0.5143890000000000 N
   0.6028030000000000    0.1843209999999990    0.3962880000000000 N
   0.4969380000000000    0.6203460000000000    0.5373930000000000 N
   0.4969380000000000    0.3796540000000000    0.9626070000000000 N
   0.4892640000000000    0.2859830000000000    0.1586260000000000 N
   0.3971969999999990    0.8156789999999990    0.6037120000000000 N
   0.2916209999999990    0.8038750000000000    0.9856109999999991 N
   0.5030620000000000    0.3796540000000000    0.4626070000000000 N
   0.5107360000000000    0.7140170000000000    0.8413740000000000 N
   0.6028030000000000    0.8156789999999990    0.1037120000000000 N
   0.9687469999999990    0.9703000000000001    0.3459120000000000 F
   0.6590500000000000    0.9690630000000000    0.8459610000000000 F
   0.6590500000000000    0.0309370000000000    0.6540389999999990 F
   0.9291020000000000    0.6456140000000000    0.2186300000000000 F
   0.9280010000000000    0.5193530000000000    0.3841700000000000 F
   0.0708980000000000    0.6456140000000000    0.7186300000000001 F
   0.1545990000000000    0.8608589999999990    0.2221709999999990 F
   0.9687469999999990    0.0297000000000000    0.1540880000000000 F
   0.3409500000000000    0.9690630000000000    0.3459609999999990 F
   0.0312529999999990    0.9703000000000001    0.8459120000000000 F
   0.8093810000000000    0.5000000000000000    0.7500000000000000 F
   0.1545990000000000    0.1391410000000000    0.2778290000000000 F
   0.0719990000000000    0.5193530000000000    0.8841700000000001 F
   0.1906189999999990    0.5000000000000000    0.2500000000000000 F
   0.8454010000000000    0.1391410000000000    0.7778290000000000 F
   0.0719990000000000    0.4806470000000000    0.6158300000000001 F
   0.6663880000000000    0.5000000000000000    0.2500000000000000 F
   0.3336119999999990    0.5000000000000000    0.7500000000000000 F
   0.8454010000000000    0.8608589999999990    0.7221710000000000 F
   0.9291020000000000    0.3543860000000000    0.2813700000000000 F
   0.0312529999999990    0.0297000000000000    0.6540880000000000 F
   0.0708980000000000    0.3543860000000000    0.7813700000000000 F
   0.3409500000000000    0.0309370000000000    0.1540389999999990 F
   0.9280010000000000    0.4806470000000000    0.1158300000000000 F
