Cu6 Ag4 Bi14 Pb6 S32
1.0
   4.0566300000000002    0.0000000000000000    0.0000000000000000
   0.0000000000000000   12.8122240000000005    0.0000000000000000
   0.0000000000000000    6.1689100000000003   28.6227139999999984
Cu Ag Bi Pb S
6 4 14 6 32
direct
   0.2500000000000000    0.7787649999999990    0.7644770000000000 Cu
   0.7500000000000000    0.2212350000000000    0.2355229999999990 Cu
   0.2500000000000000    0.4662190000000000    0.2596420000000000 Cu
   0.7500000000000000    0.5337809999999999    0.7403580000000000 Cu
   0.2500000000000000    0.2643810000000000    0.7576029999999990 Cu
   0.7500000000000000    0.7356189999999990    0.2423970000000000 Cu
   0.2500000000000000    0.6129270000000000    0.4500780000000000 Ag
   0.7500000000000000    0.3870730000000000    0.5499220000000000 Ag
   0.2500000000000000    0.4363510000000000    0.9483360000000000 Ag
   0.7500000000000000    0.5636490000000000    0.0516639999999990 Ag
   0.2500000000000000    0.9898920000000000    0.1924390000000000 Bi
   0.7500000000000000    0.0101079999999990    0.8075610000000000 Bi
   0.2500000000000000    0.9474640000000000    0.4442750000000000 Bi
   0.7500000000000000    0.0525360000000000    0.5557250000000000 Bi
   0.2500000000000000    0.7630840000000000    0.9546819999999990 Bi
   0.7500000000000000    0.2369160000000000    0.0453180000000000 Bi
   0.2500000000000000    0.4797200000000000    0.6467390000000000 Bi
   0.7500000000000000    0.5202800000000001    0.3532610000000000 Bi
   0.2500000000000000    0.3634190000000000    0.1437670000000000 Bi
   0.7500000000000000    0.6365810000000000    0.8562329999999990 Bi
   0.2500000000000000    0.2826170000000000    0.4531489999999990 Bi
   0.7500000000000000    0.7173830000000000    0.5468510000000000 Bi
   0.2500000000000000    0.1008550000000000    0.9439090000000000 Bi
   0.7500000000000000    0.8991450000000000    0.0560909999999990 Bi
   0.2500000000000000    0.8116359999999990    0.6596109999999999 Pb
   0.7500000000000000    0.1883640000000000    0.3403890000000000 Pb
   0.2500000000000000    0.6778160000000000    0.1612220000000000 Pb
   0.7500000000000000    0.3221839999999990    0.8387779999999990 Pb
   0.2500000000000000    0.1372940000000000    0.6724740000000000 Pb
   0.7500000000000000    0.8627060000000000    0.3275260000000000 Pb
   0.2500000000000000    0.9592660000000000    0.7529850000000000 S
   0.7500000000000000    0.0407340000000000    0.2470149999999990 S
   0.2500000000000000    0.8780819999999990    0.5576240000000000 S
   0.7500000000000000    0.1219180000000000    0.4423760000000000 S
   0.2500000000000000    0.8089860000000000    0.2546029999999990 S
   0.7500000000000000    0.1910140000000000    0.7453970000000000 S
   0.2500000000000000    0.7891849999999990    0.8609420000000000 S
   0.7500000000000000    0.2108150000000000    0.1390580000000000 S
   0.2500000000000000    0.7483489999999990    0.0608320000000000 S
   0.7500000000000000    0.2516510000000000    0.9391680000000000 S
   0.2500000000000000    0.6553089999999990    0.3646100000000000 S
   0.7500000000000000    0.3446909999999990    0.6353900000000000 S
   0.2500000000000000    0.5772200000000001    0.5369420000000000 S
   0.7500000000000000    0.4227800000000000    0.4630579999999990 S
   0.2500000000000000    0.4780919999999990    0.8625839999999990 S
   0.7500000000000000    0.5219079999999990    0.1374159999999990 S
   0.2500000000000000    0.4481100000000000    0.7394919999999990 S
   0.7500000000000000    0.5518900000000000    0.2605079999999990 S
   0.2500000000000000    0.3876400000000000    0.0353990000000000 S
   0.7500000000000000    0.6123600000000000    0.9646009999999990 S
   0.2500000000000000    0.3450660000000000    0.3566760000000000 S
   0.7500000000000000    0.6549340000000000    0.6433240000000000 S
   0.2500000000000000    0.3060239999999990    0.2371430000000000 S
   0.7500000000000000    0.6939759999999990    0.7628570000000000 S
   0.2500000000000000    0.1956290000000000    0.5564049999999990 S
   0.7500000000000000    0.8043709999999999    0.4435949999999990 S
   0.2500000000000000    0.1442159999999990    0.8462540000000000 S
   0.7500000000000000    0.8557840000000000    0.1537460000000000 S
   0.2500000000000000    0.0680689999999990    0.0477540000000000 S
   0.7500000000000000    0.9319310000000000    0.9522459999999990 S
   0.2500000000000000    0.0082270000000000    0.3522619999999990 S
   0.7500000000000000    0.9917729999999991    0.6477379999999990 S
