Sr6 Bi4 Se12 O38
1.0
  17.7241220000000013    0.0000000000000000    0.0000000000000000
   0.0000000000000000    7.1818840000000002    0.0000000000000000
   0.0000000000000000    0.2429589999999990    7.3556030000000003
Sr Bi Se O
6 4 12 38
direct
   0.6063180000000000    0.4038330000000000    0.9361309999999990 Sr
   0.1063180000000000    0.5961670000000000    0.0638690000000000 Sr
   0.3936820000000000    0.5961670000000000    0.0638690000000000 Sr
   0.8936820000000000    0.4038330000000000    0.9361309999999990 Sr
   0.7500000000000000    0.6405770000000000    0.3352440000000000 Sr
   0.2500000000000000    0.3594230000000000    0.6647560000000000 Sr
   0.5837400000000000    0.9041279999999990    0.6617850000000000 Bi
   0.0837400000000000    0.0958720000000000    0.3382150000000000 Bi
   0.4162600000000000    0.0958720000000000    0.3382150000000000 Bi
   0.9162600000000001    0.9041279999999990    0.6617850000000000 Bi
   0.4304530000000000    0.6173240000000000    0.6078030000000000 Se
   0.9304530000000000    0.3826759999999990    0.3921969999999990 Se
   0.5695470000000000    0.3826759999999990    0.3921969999999990 Se
   0.0695470000000000    0.6173240000000000    0.6078030000000000 Se
   0.7500000000000000    0.1722910000000000    0.6088810000000000 Se
   0.2500000000000000    0.8277089999999990    0.3911190000000000 Se
   0.7500000000000000    0.6871070000000000    0.8099179999999990 Se
   0.2500000000000000    0.3128930000000000    0.1900820000000000 Se
   0.5809989999999990    0.9103680000000000    0.1557380000000000 Se
   0.0809990000000000    0.0896319999999990    0.8442620000000000 Se
   0.4190009999999990    0.0896319999999990    0.8442620000000000 Se
   0.9190010000000000    0.9103680000000000    0.1557380000000000 Se
   0.4531880000000000    0.8575649999999990    0.5625479999999990 O
   0.9531879999999990    0.1424350000000000    0.4374520000000000 O
   0.5468120000000000    0.1424350000000000    0.4374520000000000 O
   0.0468120000000000    0.8575649999999990    0.5625479999999990 O
   0.4943030000000000    0.5902430000000000    0.7833810000000000 O
   0.9943029999999990    0.4097570000000000    0.2166189999999990 O
   0.5056970000000000    0.4097570000000000    0.2166189999999990 O
   0.0056970000000000    0.5902430000000000    0.7833810000000000 O
   0.3474330000000000    0.6312300000000001    0.7211830000000000 O
   0.8474330000000000    0.3687700000000000    0.2788170000000000 O
   0.6525670000000000    0.3687700000000000    0.2788170000000000 O
   0.1525669999999990    0.6312300000000001    0.7211830000000000 O
   0.7500000000000000    0.9617530000000000    0.5055930000000000 O
   0.2500000000000000    0.0382469999999990    0.4944070000000000 O
   0.6718250000000000    0.1399439999999990    0.7533609999999999 O
   0.1718250000000000    0.8600559999999990    0.2466390000000000 O
   0.3281750000000000    0.8600559999999990    0.2466390000000000 O
   0.8281750000000000    0.1399439999999990    0.7533609999999999 O
   0.7500000000000000    0.5171840000000000    0.9800900000000001 O
   0.2500000000000000    0.4828159999999990    0.0199100000000000 O
   0.6750480000000000    0.6120979999999990    0.6755540000000000 O
   0.1750479999999990    0.3879019999999990    0.3244460000000000 O
   0.3249519999999990    0.3879019999999990    0.3244460000000000 O
   0.8249519999999990    0.6120979999999990    0.6755540000000000 O
   0.6050209999999990    0.7694139999999990    0.9789549999999991 O
   0.1050209999999990    0.2305859999999990    0.0210449999999990 O
   0.3949789999999990    0.2305859999999990    0.0210449999999990 O
   0.8949790000000000    0.7694139999999990    0.9789549999999991 O
   0.6098589999999990    0.7757060000000000    0.3411160000000000 O
   0.1098590000000000    0.2242940000000000    0.6588840000000000 O
   0.3901409999999990    0.2242940000000000    0.6588840000000000 O
   0.8901410000000000    0.7757060000000000    0.3411160000000000 O
   0.4820410000000000    0.8789070000000000    0.1648820000000000 O
   0.9820409999999991    0.1210929999999990    0.8351179999999990 O
   0.5179589999999999    0.1210929999999990    0.8351179999999990 O
   0.0179590000000000    0.8789070000000000    0.1648820000000000 O
   0.7500000000000000    0.9684309999999990    0.1484550000000000 O
   0.2500000000000000    0.0315690000000000    0.8515450000000000 O
