Cu12 Bi4 S12
1.0
   6.7656400000000003    0.0000000000000000    0.0000000000000000
   0.0000000000000000    7.7439580000000001    0.0000000000000000
   0.0000000000000000    0.0000000000000000   10.4405120000000000
Cu Bi S
12 4 12
direct
   0.8600880000000000    0.6486769999999999    0.5976089999999999 Cu
   0.3600879999999990    0.8513229999999991    0.4023910000000000 Cu
   0.1399119999999990    0.1486770000000000    0.9023909999999991 Cu
   0.6399119999999990    0.3513230000000000    0.0976090000000000 Cu
   0.9238600000000001    0.8118679999999990    0.8965879999999991 Cu
   0.4238600000000000    0.6881320000000000    0.1034119999999990 Cu
   0.0761400000000000    0.3118680000000000    0.6034119999999999 Cu
   0.5761400000000001    0.1881320000000000    0.3965880000000000 Cu
   0.0263349999999990    0.9415950000000000    0.5357569999999990 Cu
   0.5263350000000000    0.5584049999999990    0.4642429999999990 Cu
   0.9736650000000000    0.4415949999999990    0.9642430000000000 Cu
   0.4736650000000000    0.0584050000000000    0.0357570000000000 Cu
   0.3702270000000000    0.6945000000000000    0.7560260000000000 Bi
   0.8702270000000000    0.8055000000000000    0.2439740000000000 Bi
   0.6297729999999990    0.1945000000000000    0.7439739999999990 Bi
   0.1297730000000000    0.3055000000000000    0.2560260000000000 Bi
   0.1079820000000000    0.9463320000000000    0.7477300000000000 S
   0.6079820000000000    0.5536679999999990    0.2522700000000000 S
   0.8920180000000000    0.4463320000000000    0.7522700000000001 S
   0.3920180000000000    0.0536680000000000    0.2477300000000000 S
   0.5858530000000000    0.8194750000000000    0.5691470000000000 S
   0.0858530000000000    0.6805249999999990    0.4308530000000000 S
   0.4141470000000000    0.3194750000000000    0.9308529999999990 S
   0.9141469999999990    0.1805250000000000    0.0691470000000000 S
   0.5946030000000000    0.8214629999999991    0.9378719999999990 S
   0.0946029999999990    0.6785369999999999    0.0621279999999990 S
   0.4053970000000000    0.3214630000000000    0.5621280000000000 S
   0.9053970000000000    0.1785370000000000    0.4378720000000000 S
