Tl24 Bi24 P32 S128
1.0
   0.0000000000000000  -13.4668678300000000    0.0000000000000000
 -18.7132773599999993    0.0000000000000000   10.0015227499999995
   0.0781841500000000    0.0000000000000000  -22.6503747799999999
Tl Bi P S
24 24 32 128
direct
   0.5416596400000000    0.4790438700000000    0.3488538600000000 Tl
   0.0416596400000000    0.5209561300000000    0.1511461400000000 Tl
   0.4583403600000000    0.5209561300000000    0.6511461400000000 Tl
   0.9583403600000000    0.4790438700000000    0.8488538600000001 Tl
   0.7392935100000000    0.5891686800000000    0.1681419100000000 Tl
   0.2392935100000000    0.4108313200000000    0.3318580900000000 Tl
   0.2607064900000000    0.4108313200000000    0.8318580900000000 Tl
   0.7607064900000000    0.5891686800000000    0.6681419100000000 Tl
   0.9582973800000000    0.3732450500000000    0.3568960900000000 Tl
   0.4582973800000000    0.6267549500000000    0.1431039100000000 Tl
   0.0417026200000000    0.6267549500000000    0.6431039100000000 Tl
   0.5417026200000000    0.3732450500000000    0.8568960900000000 Tl
   0.9866513700000000    0.8620936100000001    0.3493312500000000 Tl
   0.4866513700000000    0.1379063900000000    0.1506687500000000 Tl
   0.0133486300000000    0.1379063900000000    0.6506687500000000 Tl
   0.5133486300000000    0.8620936100000001    0.8493312500000000 Tl
   0.6775410500000000    0.1069567100000000    0.6685590000000000 Tl
   0.1775410500000000    0.8930432900000000    0.8314410000000000 Tl
   0.3224589500000000    0.8930432900000000    0.3314410000000000 Tl
   0.8224589500000000    0.1069567100000000    0.1685590000000000 Tl
   0.5386367900000000    0.0093898200000000    0.3447606800000000 Tl
   0.0386367900000000    0.9906101800000000    0.1552393200000000 Tl
   0.4613632100000000    0.9906101800000000    0.6552393200000000 Tl
   0.9613632100000000    0.0093898200000000    0.8447606800000000 Tl
   0.7389394200000000    0.3372238100000000    0.1569315000000000 Bi
   0.2389394200000000    0.6627761900000000    0.3430685000000000 Bi
   0.2610605800000000    0.6627761900000000    0.8430685000000000 Bi
   0.7610605800000000    0.3372238100000000    0.6569315000000000 Bi
   0.2367018000000000    0.1807889400000000    0.8415157500000000 Bi
   0.7367018000000000    0.8192110600000000    0.6584842500000000 Bi
   0.7632981999999990    0.8192110600000000    0.1584842500000000 Bi
   0.2632982000000000    0.1807889400000000    0.3415157500000000 Bi
   0.8957200700000000    0.1290709900000000    0.4394667300000000 Bi
   0.3957200700000000    0.8709290100000000    0.0605332700000000 Bi
   0.1042799300000000    0.8709290100000000    0.5605332700000000 Bi
   0.6042799300000000    0.1290709900000000    0.9394667300000000 Bi
   0.6525304000000000    0.2921432600000000    0.4378236900000000 Bi
   0.1525303999999990    0.7078567400000000    0.0621763100000000 Bi
   0.3474696000000000    0.7078567400000000    0.5621763100000000 Bi
   0.8474695999999990    0.2921432600000000    0.9378236900000000 Bi
   0.1518024500000000    0.3517491900000000    0.5661694400000000 Bi
   0.6518024500000000    0.6482508100000001    0.9338305600000000 Bi
   0.8481975500000000    0.6482508100000001    0.4338305600000000 Bi
   0.3481975500000000    0.3517491900000000    0.0661694400000000 Bi
   0.1104906000000000    0.1938679999999990    0.0645576600000000 Bi
   0.6104906000000000    0.8061320000000000    0.4354423400000000 Bi
   0.8895094000000000    0.8061320000000000    0.9354423400000000 Bi
   0.3895094000000000    0.1938679999999990    0.5645576600000000 Bi
   0.1564400200000000    0.1370291100000000    0.4893125200000000 P
   0.6564400200000000    0.8629708900000000    0.0106874800000000 P
   0.8435599800000000    0.8629708900000000    0.5106874800000000 P
   0.3435599800000000    0.1370291100000000    0.9893125200000000 P
   0.8480377000000000    0.1562978100000000    0.0142793700000000 P
   0.3480377000000000    0.8437021900000000    0.4857206300000000 P
   0.1519623000000000    0.8437021900000000    0.9857206300000000 P
   0.6519623000000000    0.1562978100000000    0.5142793700000000 P
   0.6092122000000000    0.3449503000000000    0.0139817300000000 P
   0.1092122000000000    0.6550497000000000    0.4860182700000000 P
   0.3907877999999990    0.6550497000000000    0.9860182700000000 P
   0.8907877999999990    0.3449503000000000    0.5139817300000000 P
   0.1115182200000000    0.3353028200000000    0.9907057700000000 P
   0.6115182200000000    0.6646971800000000    0.5092942300000000 P
   0.8884817800000000    0.6646971800000000    0.0092942300000000 P
   0.3884817800000000    0.3353028200000000    0.4907057700000000 P
   0.8474436000000000    0.9848751700000000    0.2855011100000000 P
   0.3474435999999990    0.0151248300000000    0.2144988900000000 P
   0.1525563999999990    0.0151248300000000    0.7144988900000000 P
   0.6525563999999990    0.9848751700000000    0.7855011100000000 P
   0.6865325800000001    0.2879746700000000    0.2839644000000000 P
   0.1865325800000000    0.7120253300000000    0.2160356000000000 P
   0.3134674200000000    0.7120253300000000    0.7160356000000000 P
   0.8134674200000001    0.2879746700000000    0.7839644000000000 P
   0.3502753300000000    0.2219445800000000    0.7281034200000001 P
   0.8502753300000000    0.7780554200000001    0.7718965800000001 P
   0.6497246700000000    0.7780554200000001    0.2718965800000000 P
   0.1497246700000000    0.2219445800000000    0.2281034200000000 P
   0.3177876700000000    0.4951495600000000    0.2276880100000000 P
   0.8177876700000000    0.5048504400000000    0.2723119900000000 P
   0.6822123300000000    0.5048504400000000    0.7723119900000001 P
   0.1822123300000000    0.4951495600000000    0.7276880100000001 P
   0.1054762100000000    0.1889258600000000    0.4374952900000000 S
   0.6054762100000000    0.8110741400000000    0.0625047100000000 S
   0.8945237900000000    0.8110741400000000    0.5625047100000000 S
   0.3945237900000000    0.1889258600000000    0.9374952900000000 S
   0.0496911100000000    0.0649213600000000    0.4818339100000000 S
   0.5496911100000000    0.9350786400000001    0.0181660900000000 S
   0.9503088900000001    0.9350786400000001    0.5181660900000000 S
   0.4503088900000000    0.0649213600000000    0.9818339100000000 S
   0.2096158400000000    0.0871259100000000    0.9543825200000000 S
   0.7096158400000000    0.9128740900000000    0.5456174800000000 S
   0.7903841600000000    0.9128740900000000    0.0456174800000000 S
   0.2903841600000000    0.0871259100000000    0.4543825200000000 S
   0.1795147300000000    0.2143626300000000    0.5876026100000000 S
   0.6795147300000001    0.7856373700000000    0.9123973900000000 S
   0.8204852700000000    0.7856373700000000    0.4123973900000000 S
   0.3204852700000000    0.2143626300000000    0.0876026100000000 S
   0.9532157999999999    0.0852205700000000    0.0116385500000000 S
   0.4532158000000000    0.9147794300000001    0.4883614500000000 S
   0.0467842000000000    0.9147794300000001    0.9883614500000000 S
   0.5467841999999991    0.0852205700000000    0.5116385500000000 S
   0.7820049000000000    0.1450886200000000    0.5556238200000000 S
   0.2820049000000000    0.8549113800000000    0.9443761800000000 S
   0.2179951000000000    0.8549113800000000    0.4443761800000000 S
   0.7179951000000000    0.1450886200000000    0.0556238200000000 S
   0.5965354300000000    0.2582307300000000    0.5681057400000000 S
   0.0965354300000000    0.7417692700000000    0.9318942600000000 S
   0.4034645700000000    0.7417692700000000    0.4318942600000000 S
   0.9034645700000000    0.2582307300000000    0.0681057400000000 S
   0.8171998200000000    0.1400978000000000    0.9182495900000001 S
   0.3171998200000000    0.8599021999999999    0.5817504100000001 S
   0.1828001800000000    0.8599021999999999    0.0817504100000000 S
   0.6828001800000000    0.1400978000000000    0.4182495900000000 S
   0.9964006900000000    0.4146518200000000    0.5158483300000000 S
   0.4964006900000000    0.5853481800000000    0.9841516700000000 S
   0.0035993100000000    0.5853481800000000    0.4841516700000000 S
   0.5035993100000000    0.4146518200000000    0.0158483300000000 S
   0.5618103000000000    0.2989254500000000    0.0712301900000000 S
   0.0618103000000000    0.7010745500000000    0.4287698100000000 S
   0.4381896999999990    0.7010745500000000    0.9287698100000000 S
   0.9381896999999991    0.2989254500000000    0.5712301900000000 S
   0.7560496700000000    0.3957450500000000    0.5521878100000001 S
   0.2560496700000000    0.6042549500000000    0.9478121900000001 S
   0.2439503300000000    0.6042549500000000    0.4478121900000000 S
   0.7439503300000000    0.3957450500000000    0.0521878100000000 S
   0.6375995000000000    0.2658993300000000    0.9175970700000000 S
   0.1375994999999990    0.7341006700000000    0.5824029300000000 S
   0.3624004999999990    0.7341006700000000    0.0824029300000000 S
   0.8624005000000000    0.2658993300000000    0.4175970700000000 S
   0.0058464200000000    0.4034471600000000    0.9892628300000000 S
   0.5058464200000000    0.5965528400000000    0.5107371700000000 S
   0.9941535800000000    0.5965528400000000    0.0107371700000000 S
   0.4941535800000000    0.4034471600000000    0.4892628300000000 S
   0.1393067600000000    0.3524073400000000    0.0873523900000000 S
   0.6393067600000000    0.6475926600000000    0.4126476100000000 S
   0.8606932400000000    0.6475926600000000    0.9126476100000001 S
   0.3606932400000000    0.3524073400000000    0.5873523900000001 S
   0.4361197100000000    0.2318554600000000    0.4334016800000000 S
   0.9361197100000000    0.7681445400000000    0.0665983200000000 S
   0.5638802900000001    0.7681445400000000    0.5665983200000000 S
   0.0638802900000000    0.2318554600000000    0.9334016800000000 S
   0.2540145900000000    0.3485475400000000    0.4539732300000000 S
   0.7540145900000000    0.6514524600000000    0.0460267700000000 S
   0.7459854100000001    0.6514524600000000    0.5460267700000000 S
   0.2459854100000000    0.3485475400000000    0.9539732300000000 S
   0.0606485700000000    0.0973012800000000    0.7750372300000000 S
   0.5606485700000000    0.9026987200000001    0.7249627700000000 S
   0.9393514300000000    0.9026987200000001    0.2249627700000000 S
   0.4393514300000000    0.0973012800000000    0.2750372300000000 S
   0.2881948200000000    0.0364592600000000    0.7631252900000001 S
   0.7881948200000000    0.9635407400000000    0.7368747100000000 S
   0.7118051800000000    0.9635407400000000    0.2368747100000000 S
   0.2118051800000000    0.0364592600000000    0.2631252900000000 S
   0.8348718500000000    0.9897072600000000    0.3787706100000000 S
   0.3348718500000000    0.0102927400000000    0.1212293900000000 S
   0.1651281500000000    0.0102927400000000    0.6212293900000000 S
   0.6651281500000000    0.9897072600000000    0.8787706100000000 S
   0.0958491500000000    0.9186043400000000    0.6990909200000001 S
   0.5958491500000000    0.0813956600000000    0.8009090800000001 S
   0.9041508500000001    0.0813956600000000    0.3009090800000000 S
   0.4041508500000000    0.9186043400000000    0.1990909200000000 S
   0.5822444800000001    0.3077380999999990    0.2287068500000000 S
   0.0822444800000000    0.6922619000000000    0.2712931500000000 S
   0.4177555200000000    0.6922619000000000    0.7712931500000000 S
   0.9177555200000000    0.3077380999999990    0.7287068500000000 S
   0.6538708400000001    0.1988015800000000    0.2929470800000000 S
   0.1538708400000000    0.8011984200000000    0.2070529200000000 S
   0.3461291600000000    0.8011984200000000    0.7070529200000000 S
   0.8461291600000000    0.1988015800000000    0.7929470800000000 S
   0.6957059700000000    0.3742991800000000    0.3788500600000000 S
   0.1957059700000000    0.6257008200000000    0.1211499400000000 S
   0.3042940300000000    0.6257008200000000    0.6211499400000000 S
   0.8042940300000000    0.3742991800000000    0.8788500600000000 S
   0.8214740600000000    0.2760252500000000    0.2353446100000000 S
   0.3214740600000000    0.7239747500000000    0.2646553900000000 S
   0.1785259400000000    0.7239747500000000    0.7646553900000000 S
   0.6785259400000000    0.2760252500000000    0.7353446100000001 S
   0.3969809500000000    0.3041555999999990    0.7122092600000001 S
   0.8969809500000000    0.6958443999999990    0.7877907400000000 S
   0.6030190500000000    0.6958443999999990    0.2877907400000000 S
   0.1030190500000000    0.3041555999999990    0.2122092600000000 S
   0.4223683800000000    0.2173490600000000    0.8051773400000000 S
   0.9223683800000000    0.7826509400000000    0.6948226600000000 S
   0.5776316200000000    0.7826509400000000    0.1948226600000000 S
   0.0776316200000000    0.2173490600000000    0.3051773400000000 S
   0.3000812700000000    0.2332752000000000    0.2531813600000000 S
   0.8000812700000001    0.7667248000000000    0.2468186400000000 S
   0.6999187300000000    0.7667248000000000    0.7468186400000000 S
   0.1999187300000000    0.2332752000000000    0.7531813600000000 S
   0.1225333700000000    0.1284003300000000    0.1412626500000000 S
   0.6225333700000000    0.8715996700000000    0.3587373500000000 S
   0.8774666300000000    0.8715996700000000    0.8587373500000001 S
   0.3774666300000000    0.1284003300000000    0.6412626500000000 S
   0.3648045900000000    0.3959738200000000    0.2103880200000000 S
   0.8648045900000000    0.6040261800000000    0.2896119800000000 S
   0.6351954100000000    0.6040261800000000    0.7896119800000000 S
   0.1351954100000000    0.3959738200000000    0.7103880200000000 S
   0.3184805400000000    0.4950992200000000    0.1364188999999990 S
   0.8184805400000000    0.5049007800000000    0.3635811000000000 S
   0.6815194600000000    0.5049007800000000    0.8635811000000000 S
   0.1815194600000000    0.4950992200000000    0.6364189000000000 S
   0.5921037300000001    0.4256405900000000    0.7055108000000000 S
   0.0921037300000000    0.5743594100000000    0.7944892000000000 S
   0.4078962700000000    0.5743594100000000    0.2944892000000000 S
   0.9078962700000001    0.4256405900000000    0.2055108000000000 S
   0.8239665600000000    0.4821346500000000    0.7324061900000001 S
   0.3239665600000000    0.5178653500000000    0.7675938100000000 S
   0.1760334400000000    0.5178653500000000    0.2675938100000000 S
   0.6760334400000000    0.4821346500000000    0.2324061900000000 S
