Sb8 S12 O48
1.0
   8.7712394699999994    0.0000000000000000    0.0000000000000000
   0.0000000000000000    8.6203651400000005   -0.0297062600000000
   0.0000000000000000    8.5752268399999991   12.8402444899999999
Sb S O
8 12 48
direct
   0.4668437500000000    0.3594589500000000    0.3881155400000000 Sb
   0.9668437500000000    0.6405410500000001    0.1118844600000000 Sb
   0.5144234900000000    0.8873532500000000    0.8833150999999990 Sb
   0.0144234900000000    0.1126467500000000    0.6166849000000000 Sb
   0.9855765100000000    0.8873532500000000    0.3833150999999990 Sb
   0.4855765100000000    0.1126467500000000    0.1166849000000000 Sb
   0.0331562500000000    0.3594589500000000    0.8881155400000000 Sb
   0.5331562500000000    0.6405410500000001    0.6118844600000000 Sb
   0.7474195800000000    0.4733107400000000    0.4986340200000000 S
   0.6384901100000000    0.7282239700000001    0.1863334300000000 S
   0.8467880999999990    0.0871279000000000    0.8162332300000000 S
   0.1384901100000000    0.2717760300000000    0.3136665700000000 S
   0.3467881000000000    0.9128721000000000    0.6837667700000000 S
   0.2474195800000000    0.5266892600000000    0.0013659800000000 S
   0.7525804200000000    0.4733107400000000    0.9986340200000000 S
   0.6532119000000000    0.0871279000000000    0.3162332300000000 S
   0.8615098900000000    0.7282239700000001    0.6863334300000000 S
   0.1532118999999990    0.9128721000000000    0.1837667700000000 S
   0.3615098900000000    0.2717760300000000    0.8136665700000000 S
   0.2525804200000000    0.5266892600000000    0.5013659800000000 S
   0.1325032300000000    0.3929561200000000    0.5621781500000000 O
   0.1645847500000000    0.7643571900000000    0.1650967700000000 O
   0.2970753700000000    0.5134753900000000    0.4122925100000000 O
   0.3715724500000000    0.1335316900000000    0.7846117700000000 O
   0.6135493400000001    0.5135668700000000    0.4308650000000000 O
   0.7866416200000000    0.6329623999999990    0.2210182200000000 O
   0.6136631000000000    0.8177869700000000    0.0764805500000000 O
   0.9623954700000000    0.1576621700000000    0.7286020100000000 O
   0.6978816500000000    0.0686286900000000    0.7761797300000001 O
   0.7975112300000000    0.2818136800000000    0.5405576400000001 O
   0.8966014000000000    0.9116001500000001    0.9055276400000000 O
   0.5122812200000000    0.5883549700000000    0.2434317100000000 O
   0.0122812200000000    0.4116450300000000    0.2565682900000000 O
   0.3966014000000000    0.0883998500000000    0.5944723600000000 O
   0.2975112300000000    0.7181863200000000    0.9594423600000000 O
   0.1978816500000000    0.9313713100000001    0.7238202700000000 O
   0.1136630999999990    0.1822130300000000    0.4235194500000000 O
   0.4623954700000000    0.8423378300000001    0.7713979900000000 O
   0.2866416200000000    0.3670375999999990    0.2789817800000000 O
   0.1135493400000000    0.4864331300000000    0.0691350000000000 O
   0.7970753700000001    0.4865246100000000    0.0877074900000000 O
   0.6645847500000001    0.2356428100000000    0.3349032300000000 O
   0.8715724500000001    0.8664683100000000    0.7153882300000001 O
   0.6325032300000000    0.6070438800000000    0.9378218500000001 O
   0.3674967700000000    0.3929561200000000    0.0621781500000000 O
   0.1284275500000000    0.1335316900000000    0.2846117700000000 O
   0.3354152500000000    0.7643571900000000    0.6650967700000000 O
   0.2029246300000000    0.5134753900000000    0.9122925100000000 O
   0.8864506600000001    0.5135668700000000    0.9308649999999991 O
   0.7133583800000001    0.6329623999999990    0.7210182200000000 O
   0.5376045300000000    0.1576621700000000    0.2286020100000000 O
   0.8863369000000000    0.8177869700000000    0.5764805500000000 O
   0.8021183500000000    0.0686286900000000    0.2761797300000000 O
   0.7024887700000000    0.2818136800000000    0.0405576400000000 O
   0.6033986000000000    0.9116001500000001    0.4055276400000000 O
   0.9877187800000000    0.5883549700000000    0.7434317100000000 O
   0.4877187800000000    0.4116450300000000    0.7565682900000000 O
   0.1033986000000000    0.0883998500000000    0.0944723600000000 O
   0.2024887700000000    0.7181863200000000    0.4594423600000000 O
   0.3021183500000000    0.9313713100000001    0.2238202700000000 O
   0.0376045300000000    0.8423378300000001    0.2713979900000000 O
   0.3863369000000000    0.1822130300000000    0.9235194500000000 O
   0.2133583800000000    0.3670375999999990    0.7789817800000001 O
   0.3864506600000000    0.4864331300000000    0.5691349999999999 O
   0.6284275500000001    0.8664683100000000    0.2153882300000000 O
   0.7029246300000001    0.4865246100000000    0.5877074900000000 O
   0.8354152500000001    0.2356428100000000    0.8349032300000000 O
   0.8674967700000000    0.6070438800000000    0.4378218500000000 O
