Bi16 S24 O96
1.0
   9.2032989999999995    0.0000000000000000    0.0000000000000000
   0.0000000000000000    9.3534290000000002    0.0000000000000000
   0.0000000000000000    0.0000000000000000   25.7554209999999983
Bi S O
16 24 96
direct
   0.9998769999999991    0.3945460000000000    0.0650930000000000 Bi
   0.9998769999999991    0.1054539999999990    0.5650930000000000 Bi
   0.9947070000000000    0.7999489999999990    0.1801029999999990 Bi
   0.9947070000000000    0.7000510000000000    0.6801030000000000 Bi
   0.5052930000000000    0.2999489999999990    0.1801029999999990 Bi
   0.5052930000000000    0.2000509999999990    0.6801030000000000 Bi
   0.5001230000000000    0.6054539999999990    0.5650930000000000 Bi
   0.5001230000000000    0.8945460000000000    0.0650930000000000 Bi
   0.4998769999999990    0.3945460000000000    0.4349070000000000 Bi
   0.4998769999999990    0.1054539999999990    0.9349069999999990 Bi
   0.4947069999999991    0.7000510000000000    0.8198970000000000 Bi
   0.4947069999999991    0.7999489999999990    0.3198970000000000 Bi
   0.0052930000000000    0.2999489999999990    0.3198970000000000 Bi
   0.0052930000000000    0.2000509999999990    0.8198970000000000 Bi
   0.0001229999999990    0.8945460000000000    0.4349070000000000 Bi
   0.0001229999999990    0.6054539999999990    0.9349069999999990 Bi
   0.1453829999999990    0.9466329999999999    0.2972780000000000 S
   0.1453829999999990    0.5533669999999991    0.7972779999999990 S
   0.1483360000000000    0.2588570000000000    0.4496890000000000 S
   0.1483360000000000    0.2411430000000000    0.9496890000000000 S
   0.1930390000000000    0.0888070000000000    0.1158790000000000 S
   0.1930390000000000    0.4111930000000000    0.6158790000000000 S
   0.3069610000000000    0.5888070000000000    0.1158790000000000 S
   0.3069610000000000    0.9111929999999990    0.6158790000000000 S
   0.3516640000000000    0.7588570000000000    0.4496890000000000 S
   0.3516640000000000    0.7411430000000000    0.9496890000000000 S
   0.3546169999999990    0.4466330000000000    0.2972780000000000 S
   0.3546169999999990    0.0533670000000000    0.7972779999999990 S
   0.6453829999999990    0.5533669999999991    0.7027220000000000 S
   0.6453829999999990    0.9466329999999999    0.2027219999999990 S
   0.6483360000000000    0.2588570000000000    0.0503109999999990 S
   0.6483360000000000    0.2411430000000000    0.5503110000000000 S
   0.6930390000000000    0.0888070000000000    0.3841210000000000 S
   0.6930390000000000    0.4111930000000000    0.8841209999999990 S
   0.8069609999999990    0.5888070000000000    0.3841210000000000 S
   0.8069609999999990    0.9111929999999990    0.8841209999999990 S
   0.8516640000000000    0.7588570000000000    0.0503109999999990 S
   0.8516640000000000    0.7411430000000000    0.5503110000000000 S
   0.8546170000000000    0.4466330000000000    0.2027219999999990 S
   0.8546170000000000    0.0533670000000000    0.7027220000000000 S
   0.0663040000000000    0.3843379999999990    0.4630309999999990 O
   0.0663040000000000    0.1156620000000000    0.9630310000000000 O
   0.0854270000000000    0.0842069999999990    0.2778000000000000 O
   0.0854270000000000    0.4157929999999990    0.7778000000000000 O
   0.0847450000000000    0.1237389999999990    0.4775069999999990 O
   0.0847450000000000    0.3762609999999990    0.9775069999999991 O
   0.0929320000000000    0.9177679999999990    0.3507710000000000 O
   0.0929320000000000    0.5822320000000000    0.8507709999999991 O
   0.0960340000000000    0.1811960000000000    0.0837980000000000 O
   0.0960340000000000    0.3188040000000000    0.5837979999999990 O
   0.0990930000000000    0.8263380000000000    0.2630380000000000 O
   0.0990930000000000    0.6736620000000000    0.7630380000000000 O
   0.1018540000000000    0.0154430000000000    0.1554090000000000 O
   0.1018540000000000    0.4845569999999990    0.6554090000000000 O
   0.1447010000000000    0.2216759999999990    0.3928330000000000 O
   0.1447010000000000    0.2783239999999990    0.8928330000000000 O
   0.1921550000000000    0.4557380000000000    0.2970310000000000 O
   0.1921550000000000    0.0442619999999990    0.7970309999999990 O
   0.1956290000000000    0.6764530000000000    0.1426300000000000 O
   0.1956290000000000    0.8235469999999990    0.6426300000000000 O
   0.1958210000000000    0.7638210000000000    0.4666590000000000 O
   0.1958210000000000    0.7361789999999990    0.9666589999999990 O
   0.2379389999999990    0.0168930000000000    0.5806400000000000 O
   0.2379389999999990    0.4831069999999991    0.0806400000000000 O
   0.2620610000000000    0.5168929999999990    0.5806400000000000 O
   0.2620610000000000    0.9831070000000000    0.0806400000000000 O
   0.3041790000000000    0.2361790000000000    0.9666589999999990 O
   0.3041790000000000    0.2638209999999990    0.4666590000000000 O
   0.3043710000000000    0.1764530000000000    0.1426300000000000 O
   0.3043710000000000    0.3235470000000000    0.6426300000000000 O
   0.3078450000000000    0.9557380000000000    0.2970310000000000 O
   0.3078450000000000    0.5442620000000000    0.7970309999999990 O
   0.3552990000000000    0.7216760000000000    0.3928330000000000 O
   0.3552990000000000    0.7783240000000000    0.8928330000000000 O
   0.3981460000000000    0.9845569999999991    0.6554090000000000 O
   0.3981460000000000    0.5154430000000000    0.1554090000000000 O
   0.4009069999999990    0.3263379999999990    0.2630380000000000 O
   0.4009069999999990    0.1736619999999990    0.7630380000000000 O
   0.4039660000000000    0.6811960000000000    0.0837980000000000 O
   0.4039660000000000    0.8188040000000000    0.5837979999999990 O
   0.4070680000000000    0.0822320000000000    0.8507709999999991 O
   0.4070680000000000    0.4177680000000000    0.3507710000000000 O
   0.4152550000000000    0.8762610000000000    0.9775069999999991 O
   0.4152550000000000    0.6237389999999990    0.4775069999999990 O
   0.4145729999999990    0.5842069999999990    0.2778000000000000 O
   0.4145729999999990    0.9157930000000000    0.7778000000000000 O
   0.4336959999999990    0.6156619999999990    0.9630310000000000 O
   0.4336959999999990    0.8843380000000000    0.4630309999999990 O
   0.5663040000000000    0.3843379999999990    0.0369689999999990 O
   0.5663040000000000    0.1156620000000000    0.5369690000000000 O
   0.5854269999999990    0.0842069999999990    0.2222000000000000 O
   0.5854269999999990    0.4157929999999990    0.7222000000000001 O
   0.5847450000000000    0.1237389999999990    0.0224930000000000 O
   0.5847450000000000    0.3762609999999990    0.5224930000000000 O
   0.5929320000000000    0.5822320000000000    0.6492289999999999 O
   0.5929320000000000    0.9177679999999990    0.1492290000000000 O
   0.5960340000000000    0.1811960000000000    0.4162019999999990 O
   0.5960340000000000    0.3188040000000000    0.9162020000000000 O
   0.5990930000000000    0.8263380000000000    0.2369619999999990 O
   0.5990930000000000    0.6736620000000000    0.7369620000000000 O
   0.6018540000000000    0.0154430000000000    0.3445910000000000 O
   0.6018540000000000    0.4845569999999990    0.8445910000000000 O
   0.6447010000000000    0.2216759999999990    0.1071670000000000 O
   0.6447010000000000    0.2783239999999990    0.6071670000000000 O
   0.6921550000000000    0.4557380000000000    0.2029689999999990 O
   0.6921550000000000    0.0442619999999990    0.7029690000000000 O
   0.6956289999999991    0.6764530000000000    0.3573700000000000 O
   0.6956289999999991    0.8235469999999990    0.8573700000000001 O
   0.6958210000000000    0.7638210000000000    0.0333409999999990 O
   0.6958210000000000    0.7361789999999990    0.5333410000000000 O
   0.7379390000000000    0.4831069999999991    0.4193600000000000 O
   0.7379390000000000    0.0168930000000000    0.9193600000000001 O
   0.7620610000000000    0.9831070000000000    0.4193600000000000 O
   0.7620610000000000    0.5168929999999990    0.9193600000000001 O
   0.8041790000000000    0.2638209999999990    0.0333409999999990 O
   0.8041790000000000    0.2361790000000000    0.5333410000000000 O
   0.8043709999999999    0.1764530000000000    0.3573700000000000 O
   0.8043709999999999    0.3235470000000000    0.8573700000000001 O
   0.8078449999999990    0.5442620000000000    0.7029690000000000 O
   0.8078449999999990    0.9557380000000000    0.2029689999999990 O
   0.8552989999999990    0.7216760000000000    0.1071670000000000 O
   0.8552989999999990    0.7783240000000000    0.6071670000000000 O
   0.8981460000000000    0.5154430000000000    0.3445910000000000 O
   0.8981460000000000    0.9845569999999991    0.8445910000000000 O
   0.9009070000000000    0.3263379999999990    0.2369619999999990 O
   0.9009070000000000    0.1736619999999990    0.7369620000000000 O
   0.9039659999999990    0.6811960000000000    0.4162019999999990 O
   0.9039659999999990    0.8188040000000000    0.9162020000000000 O
   0.9070680000000000    0.4177680000000000    0.1492290000000000 O
   0.9070680000000000    0.0822320000000000    0.6492289999999999 O
   0.9152549999999990    0.6237389999999990    0.0224930000000000 O
   0.9152549999999990    0.8762610000000000    0.5224930000000000 O
   0.9145730000000000    0.5842069999999990    0.2222000000000000 O
   0.9145730000000000    0.9157930000000000    0.7222000000000001 O
   0.9336960000000000    0.6156619999999990    0.5369690000000000 O
   0.9336960000000000    0.8843380000000000    0.0369689999999990 O
