Eu6 As4 S16
1.0
   9.5509229500000004   -4.6005177599999998    0.0108426100000000
   9.5508144999999995    4.6002942800000000    0.0107917700000000
   7.3258382600000003   -0.0001269600000000    7.6623027600000002
Eu As S
6 4 16
direct
   0.2500227500000000    0.5707318000000000    0.9292669700000000 Eu
   0.4293096600000000    0.0706930800000000    0.7499878900000000 Eu
   0.7499994900000000    0.4293315500000000    0.0706688800000000 Eu
   0.9293473500000000    0.2499762500000000    0.5706747000000000 Eu
   0.5707042400000000    0.9292955600000000    0.2499906400000000 Eu
   0.0707257999999990    0.7500173800000001    0.4292782600000000 Eu
   0.8402791700000000    0.8404406500000000    0.8403871500000000 As
   0.6597412500000001    0.6595137600000001    0.6596287200000001 As
   0.3404469500000000    0.3403232600000000    0.3403962900000000 As
   0.1594963100000000    0.1597285500000000    0.1596163500000000 As
   0.2230794300000000    0.9451403100000000    0.3876210900000000 S
   0.7231977900000001    0.8875627100000000    0.4450972700000000 S
   0.4203277300000000    0.4204472500000000    0.4204157500000000 S
   0.2769563400000000    0.1122890600000000    0.5549427600000000 S
   0.9204019200000000    0.9203064400000001    0.9204534900000000 S
   0.0548610200000000    0.6123932000000000    0.7768811100000000 S
   0.5795519800000000    0.5796574000000000    0.5796185100000000 S
   0.1124178700000000    0.5549127100000000    0.2768477700000000 S
   0.4451482000000000    0.7230421800000000    0.8876480300000000 S
   0.7768567300000000    0.0549347300000000    0.6123155200000000 S
   0.6122644400000000    0.7769590100000000    0.0549499900000000 S
   0.0796312100000000    0.0795356900000000    0.0796390999999990 S
   0.8877818400000000    0.4449865400000000    0.7230954500000000 S
   0.3875456500000000    0.2232106300000000    0.9451000100000000 S
   0.5549358400000000    0.2768220700000000    0.1123581800000000 S
   0.9449700400000001    0.3877502200000000    0.2231211300000000 S
