Te12 As8 C6 N6 F48
1.0
   5.0691850000000001    7.4226130000000001    0.0000000000000000
  -5.0691850000000001    7.4226130000000001    0.0000000000000000
   0.0000000000000000    5.8146829999999996   18.9569960000000002
Te As C N F
12 8 6 6 48
direct
   0.0062910000000000    0.6903400000000001    0.6711170000000000 Te
   0.1707800000000000    0.4806209999999990    0.3504830000000000 Te
   0.5321310000000000    0.8470709999999990    0.7845880000000000 Te
   0.8470709999999990    0.5321310000000000    0.7845880000000000 Te
   0.4806209999999990    0.1707800000000000    0.3504830000000000 Te
   0.4678690000000000    0.1529289999999990    0.2154120000000000 Te
   0.1529289999999990    0.4678690000000000    0.2154120000000000 Te
   0.3096600000000000    0.9937090000000000    0.3288830000000000 Te
   0.9937090000000000    0.3096600000000000    0.3288830000000000 Te
   0.5193789999999990    0.8292200000000001    0.6495170000000000 Te
   0.6903400000000001    0.0062910000000000    0.6711170000000000 Te
   0.8292200000000001    0.5193789999999990    0.6495170000000000 Te
   0.1368450000000000    0.1368450000000000    0.5440140000000000 As
   0.0010230000000000    0.0010230000000000    0.8009780000000000 As
   0.9989770000000000    0.9989770000000000    0.1990220000000000 As
   0.5905380000000000    0.5905380000000000    0.2431330000000000 As
   0.8631550000000000    0.8631550000000000    0.4559860000000000 As
   0.4094620000000000    0.4094620000000000    0.7568670000000000 As
   0.5000000000000000    0.5000000000000000    0.5000000000000000 As
   0.5000000000000000    0.5000000000000000    0.0000000000000000 As
   0.9516340000000000    0.9516340000000000    0.0106300000000000 C
   0.5180210000000000    0.9737929999999990    0.9683229999999990 C
   0.0262069999999990    0.4819790000000000    0.0316770000000000 C
   0.4819790000000000    0.0262069999999990    0.0316770000000000 C
   0.0483660000000000    0.0483660000000000    0.9893700000000001 C
   0.9737929999999990    0.5180210000000000    0.9683229999999990 C
   0.1306429999999990    0.1306429999999990    0.9714900000000001 N
   0.5485490000000000    0.9289700000000001    0.9146460000000000 N
   0.0710300000000000    0.4514510000000000    0.0853540000000000 N
   0.4514510000000000    0.0710300000000000    0.0853540000000000 N
   0.8693569999999990    0.8693569999999990    0.0285100000000000 N
   0.9289700000000001    0.5485490000000000    0.9146460000000000 N
   0.9043169999999990    0.6557300000000000    0.4955900000000000 F
   0.0717670000000000    0.8225900000000000    0.4185770000000000 F
   0.7776300000000000    0.5263400000000000    0.1875530000000000 F
   0.3269450000000000    0.3269450000000000    0.7087559999999991 F
   0.4247149999999990    0.4247149999999990    0.4437870000000000 F
   0.6742520000000000    0.3257480000000000    0.0000000000000000 F
   0.5972870000000000    0.5972870000000000    0.0339029999999990 F
   0.6463169999999990    0.3999220000000000    0.3026480000000000 F
   0.4471630000000000    0.6949879999999991    0.4471810000000000 F
   0.0956829999999990    0.3442700000000000    0.5044100000000000 F
   0.1237149999999990    0.1237149999999990    0.1841960000000000 F
   0.5528370000000000    0.3050120000000000    0.5528189999999999 F
   0.3442700000000000    0.0956829999999990    0.5044100000000000 F
   0.5752849999999990    0.5752849999999990    0.5562130000000000 F
   0.8751230000000000    0.8751230000000000    0.2179040000000000 F
   0.4991179999999991    0.4991179999999991    0.7997829999999990 F
   0.8835310000000000    0.1340060000000000    0.1356139999999990 F
   0.8227420000000000    0.8227420000000000    0.3810820000000000 F
   0.6730550000000000    0.6730550000000000    0.2912440000000000 F
   0.6557300000000000    0.9043169999999990    0.4955900000000000 F
   0.5008819999999991    0.5008819999999991    0.2002169999999990 F
   0.1340060000000000    0.8835310000000000    0.1356139999999990 F
   0.1772580000000000    0.1772580000000000    0.6189180000000000 F
   0.5263400000000000    0.7776300000000000    0.1875530000000000 F
   0.8659939999999990    0.1164689999999990    0.8643860000000000 F
   0.9282330000000000    0.1774100000000000    0.5814230000000000 F
   0.8762850000000000    0.8762850000000000    0.8158040000000000 F
   0.4205689999999990    0.4205689999999990    0.0888070000000000 F
   0.1323180000000000    0.8856060000000000    0.7348049999999990 F
   0.1143940000000000    0.8676820000000000    0.2651950000000000 F
   0.3536829999999990    0.6000780000000000    0.6973520000000000 F
   0.0995679999999990    0.0995679999999990    0.4659230000000000 F
   0.3050120000000000    0.5528370000000000    0.5528189999999999 F
   0.3999220000000000    0.6463169999999990    0.3026480000000000 F
   0.9004320000000000    0.9004320000000000    0.5340770000000000 F
   0.4736600000000000    0.2223700000000000    0.8124469999999990 F
   0.1248769999999990    0.1248769999999990    0.7820960000000000 F
   0.8225900000000000    0.0717670000000000    0.4185770000000000 F
   0.8676820000000000    0.1143940000000000    0.2651950000000000 F
   0.5794309999999990    0.5794309999999990    0.9111929999999990 F
   0.3257480000000000    0.6742520000000000    0.0000000000000000 F
   0.2223700000000000    0.4736600000000000    0.8124469999999990 F
   0.8856060000000000    0.1323180000000000    0.7348049999999990 F
   0.1164689999999990    0.8659939999999990    0.8643860000000000 F
   0.6949879999999991    0.4471630000000000    0.4471810000000000 F
   0.4027130000000000    0.4027130000000000    0.9660970000000000 F
   0.1774100000000000    0.9282330000000000    0.5814230000000000 F
   0.6000780000000000    0.3536829999999990    0.6973520000000000 F
