K12 As4 Se12
1.0
   9.7636922500000001   -0.0000185800000000    0.0000380500000000
  -0.0000185800000000    9.7636549800000001   -0.0000695300000000
   0.0000380600000000   -0.0000695100000000    9.7635932899999993
K As Se
12 4 12
direct
   0.8168687700000000    0.1831343700000000    0.6831467999999991 K
   0.6831377800000000    0.8168669000000000    0.1831307400000000 K
   0.1831440700000000    0.6831260100000001    0.8168546400000000 K
   0.3168604500000000    0.3168575700000000    0.3168708900000000 K
   0.1868664200000000    0.3131344700000000    0.6868687700000000 K
   0.3131345200000000    0.6868621200000000    0.1868563300000000 K
   0.6868597100000000    0.1868666900000000    0.3131407700000000 K
   0.8131361900000000    0.8131393000000000    0.8131260200000000 K
   0.4209253100000000    0.0790768800000000    0.9209189400000001 K
   0.0790779600000000    0.9209326500000000    0.4209324500000000 K
   0.9209245900000000    0.4209246000000000    0.0790626100000000 K
   0.5790744500000000    0.5790716900000000    0.5790893800000000 K
   0.0227548999999990    0.0227578100000000    0.0227322100000000 As
   0.4772354000000000    0.9772553500000000    0.5227692700000001 As
   0.9772490700000001    0.5227521900000001    0.4772539500000000 As
   0.5227486400000000    0.4772417000000000    0.9772278500000000 As
   0.2884291800000000    0.4010823700000000    0.9950393400000000 Se
   0.7884156800000001    0.0989142400000000    0.0049337900000000 Se
   0.7115651200000001    0.9010935600000001    0.5049659600000000 Se
   0.0989281900000000    0.0049459400000000    0.7884150000000000 Se
   0.5049459200000000    0.7115794000000000    0.9010835100000000 Se
   0.0049557300000000    0.7884355300000000    0.0988932700000000 Se
   0.4010841500000000    0.9950503900000001    0.2884291800000000 Se
   0.9950597800000001    0.2884134200000000    0.4011062900000000 Se
   0.9010912000000000    0.5049417400000000    0.7115880900000000 Se
   0.5988953100000000    0.4950444200000000    0.2115657800000000 Se
   0.4950480200000000    0.2115853700000000    0.5989201500000000 Se
   0.2115834900000000    0.5989113200000000    0.4950750200000000 Se
