Cu12 Bi28 Pb12 S60
1.0
   4.0429232099999997    0.0000000000000000    0.0000000000000000
   0.0000000000000000   11.8362457299999999    0.0000000000000000
   0.0000000000000000    0.0000000000000000   55.8566406599999965
Cu Bi Pb S
12 28 12 60
direct
   0.2500000000000000    0.2284338200000000    0.9414639300000001 Cu
   0.7500000000000000    0.2715661800000000    0.4414639300000000 Cu
   0.7500000000000000    0.2693703300000000    0.2423127300000000 Cu
   0.2500000000000000    0.7306296700000000    0.7576872700000000 Cu
   0.2500000000000000    0.7329828700000001    0.9581488600000000 Cu
   0.7500000000000000    0.7670171300000000    0.4581488600000000 Cu
   0.2500000000000000    0.2306296700000000    0.7423127300000000 Cu
   0.2500000000000000    0.2329828700000000    0.5418511400000000 Cu
   0.7500000000000000    0.2670171300000000    0.0418511400000000 Cu
   0.7500000000000000    0.7715661800000000    0.0585360700000000 Cu
   0.7500000000000000    0.7693703300000000    0.2576872700000000 Cu
   0.2500000000000000    0.7284338200000000    0.5585360700000001 Cu
   0.7500000000000000    0.1521093800000000    0.8922094900000000 Bi
   0.7500000000000000    0.9842884800000000    0.3654822400000000 Bi
   0.7500000000000000    0.4787221100000000    0.9357951800000001 Bi
   0.2500000000000000    0.0157115200000000    0.6345177600000000 Bi
   0.2500000000000000    0.5186209300000000    0.6659843000000000 Bi
   0.7500000000000000    0.6521093800000000    0.6077905100000001 Bi
   0.2500000000000000    0.3481519200000000    0.1927632300000000 Bi
   0.7500000000000000    0.9787221100000000    0.5642048200000001 Bi
   0.2500000000000000    0.0186209300000000    0.8340156999999990 Bi
   0.2500000000000000    0.5173381100000000    0.2632077300000000 Bi
   0.7500000000000000    0.9813790700000000    0.1659843000000000 Bi
   0.2500000000000000    0.0132966800000000    0.0375536900000000 Bi
   0.7500000000000000    0.4813790700000000    0.3340156999999990 Bi
   0.2500000000000000    0.0173381100000000    0.2367922700000000 Bi
   0.7500000000000000    0.4842884800000000    0.1345177600000000 Bi
   0.7500000000000000    0.6518480800000001    0.8072367700000000 Bi
   0.7500000000000000    0.9826618900000000    0.7632077300000000 Bi
   0.2500000000000000    0.8481519200000001    0.3072367700000000 Bi
   0.7500000000000000    0.4867033200000000    0.5375536900000000 Bi
   0.2500000000000000    0.5132966800000001    0.4624463100000000 Bi
   0.2500000000000000    0.8478906200000000    0.1077905100000000 Bi
   0.2500000000000000    0.5157115200000000    0.8654822400000001 Bi
   0.7500000000000000    0.1518480800000000    0.6927632300000001 Bi
   0.2500000000000000    0.0212778900000000    0.4357951800000000 Bi
   0.7500000000000000    0.9867033200000001    0.9624463100000000 Bi
   0.2500000000000000    0.5212778900000000    0.0642048200000000 Bi
   0.2500000000000000    0.3478906200000000    0.3922094900000000 Bi
   0.7500000000000000    0.4826618900000000    0.7367922700000000 Bi
   0.7500000000000000    0.1741079600000000    0.2991828200000000 Pb
   0.2500000000000000    0.3263592500000000    0.5997470200000000 Pb
   0.7500000000000000    0.6741079600000001    0.2008171800000000 Pb
   0.7500000000000000    0.6686166300000000    0.0019084100000000 Pb
   0.7500000000000000    0.1686166300000000    0.4980915900000000 Pb
   0.2500000000000000    0.8263592500000000    0.9002529800000000 Pb
   0.2500000000000000    0.3258920400000000    0.7991828200000001 Pb
   0.2500000000000000    0.8258920400000000    0.7008171800000000 Pb
   0.2500000000000000    0.8313833700000001    0.5019084100000000 Pb
   0.2500000000000000    0.3313833700000000    0.9980915900000000 Pb
   0.7500000000000000    0.1736407500000000    0.0997470200000000 Pb
   0.7500000000000000    0.6736407500000000    0.4002529800000000 Pb
   0.7500000000000000    0.4505889900000000    0.2263131500000000 S
   0.2500000000000000    0.2160167300000000    0.2603025000000000 S
   0.2500000000000000    0.7086334500000000    0.8386432500000001 S
   0.7500000000000000    0.6198793500000001    0.6904744300000000 S
   0.7500000000000000    0.4536935900000000    0.0289893600000000 S
   0.2500000000000000    0.0494110100000000    0.7263131500000000 S
   0.2500000000000000    0.0474586600000000    0.9252900900000001 S
   0.2500000000000000    0.8801206500000001    0.1904744300000000 S
   0.7500000000000000    0.1274681400000000    0.4109749100000000 S
   0.7500000000000000    0.9525413400000000    0.0747099100000000 S
   0.2500000000000000    0.7127266200000000    0.4397153800000000 S
   0.7500000000000000    0.1225598700000000    0.2118977400000000 S
   0.7500000000000000    0.1180531700000000    0.6100355400000000 S
   0.7500000000000000    0.2872733800000000    0.5602846200000000 S
   0.7500000000000000    0.7872733800000000    0.9397153800000000 S
   0.2500000000000000    0.2104608900000000    0.8608600999999990 S
   0.7500000000000000    0.2913665500000000    0.1613567500000000 S
   0.2500000000000000    0.5462336600000001    0.1716771800000000 S
   0.2500000000000000    0.2086334500000000    0.6613567500000000 S
   0.2500000000000000    0.7216373700000001    0.0401361700000000 S
   0.7500000000000000    0.4525413400000000    0.4252900900000000 S
   0.2500000000000000    0.0462336600000000    0.3283228200000000 S
   0.2500000000000000    0.3801206500000000    0.3095255700000000 S
   0.7500000000000000    0.4537663400000000    0.8283228200000000 S
   0.7500000000000000    0.6225598700000000    0.2881022600000000 S
   0.7500000000000000    0.2895391100000000    0.3608600999999990 S
   0.7500000000000000    0.9505889900000000    0.2736868500000000 S
   0.2500000000000000    0.8725318600000000    0.5890250900000000 S
   0.7500000000000000    0.9537663400000000    0.6716771800000000 S
   0.2500000000000000    0.8774401300000000    0.7881022600000001 S
   0.2500000000000000    0.8831174500000000    0.9877064800000001 S
   0.7500000000000000    0.1168825500000000    0.0122935200000000 S
   0.2500000000000000    0.0468780600000000    0.1288166300000000 S
   0.2500000000000000    0.5494110100000000    0.7736868500000000 S
   0.7500000000000000    0.7913665500000000    0.3386432500000000 S
   0.7500000000000000    0.2783626300000000    0.9598638300000000 S
   0.2500000000000000    0.2216373700000000    0.4598638300000000 S
   0.7500000000000000    0.6180531700000000    0.8899644600000001 S
   0.2500000000000000    0.2127266200000000    0.0602846200000000 S
   0.2500000000000000    0.3831174500000000    0.5122935200000001 S
   0.2500000000000000    0.3819468300000000    0.1100355400000000 S
   0.2500000000000000    0.3774401300000000    0.7118977400000001 S
   0.7500000000000000    0.9536935900000000    0.4710106400000000 S
   0.7500000000000000    0.7783626300000001    0.5401361700000000 S
   0.2500000000000000    0.3725318600000000    0.9109749100000000 S
   0.7500000000000000    0.7895391100000000    0.1391398999999990 S
   0.2500000000000000    0.5463064100000000    0.9710106400000000 S
   0.2500000000000000    0.5468780600000001    0.3711833700000000 S
   0.2500000000000000    0.8819468300000001    0.3899644600000000 S
   0.7500000000000000    0.1198793500000000    0.8095255700000000 S
   0.7500000000000000    0.7839832700000000    0.7396975000000000 S
   0.2500000000000000    0.7160167300000000    0.2396974999999990 S
   0.2500000000000000    0.7104608900000000    0.6391399000000000 S
   0.2500000000000000    0.5474586600000000    0.5747099100000000 S
   0.7500000000000000    0.9531219400000001    0.8711833700000000 S
   0.7500000000000000    0.4531219400000000    0.6288166300000000 S
   0.7500000000000000    0.2839832700000000    0.7603025000000000 S
   0.7500000000000000    0.6168825500000000    0.4877064800000000 S
   0.7500000000000000    0.6274681400000001    0.0890250900000000 S
   0.2500000000000000    0.0463064100000000    0.5289893600000000 S
