K6 Dy2 As4 S16
1.0
   9.4789399999999997    5.2931949999999999    0.0000000000000000
  -9.4789399999999997    5.2931949999999999    0.0000000000000000
   0.0000000000000000    4.1814200000000001    7.9944139999999999
K Dy As S
6 2 4 16
direct
   0.2615730000000000    0.7384269999999999    0.7500000000000000 K
   0.7384269999999999    0.2615730000000000    0.2500000000000000 K
   0.5000000000000000    0.5000000000000000    0.0000000000000000 K
   0.5000000000000000    0.5000000000000000    0.5000000000000000 K
   0.9955440000000000    0.0044560000000000    0.2500000000000000 K
   0.0044560000000000    0.9955440000000000    0.7500000000000000 K
   0.2434130000000000    0.7565870000000000    0.2500000000000000 Dy
   0.7565870000000000    0.2434130000000000    0.7500000000000000 Dy
   0.6568649999999990    0.9026489999999990    0.1005350000000000 As
   0.0973510000000000    0.3431349999999990    0.3994649999999990 As
   0.3431349999999990    0.0973510000000000    0.8994650000000000 As
   0.9026489999999990    0.6568649999999990    0.6005349999999990 As
   0.4716209999999990    0.1245169999999990    0.0609720000000000 S
   0.8754830000000000    0.5283789999999990    0.4390280000000000 S
   0.5283789999999990    0.8754830000000000    0.9390280000000000 S
   0.1245169999999990    0.4716209999999990    0.5609720000000000 S
   0.1352160000000000    0.8442229999999999    0.0241119999999990 S
   0.1557770000000000    0.8647840000000000    0.4758880000000000 S
   0.8647840000000000    0.1557770000000000    0.9758880000000000 S
   0.8442229999999999    0.1352160000000000    0.5241120000000000 S
   0.7368350000000000    0.7576600000000001    0.1258790000000000 S
   0.2423400000000000    0.2631650000000000    0.3741210000000000 S
   0.2631650000000000    0.2423400000000000    0.8741209999999990 S
   0.7576600000000001    0.7368350000000000    0.6258790000000000 S
   0.1469160000000000    0.5006619999999991    0.1559160000000000 S
   0.4993380000000000    0.8530840000000000    0.3440840000000000 S
   0.8530840000000000    0.4993380000000000    0.8440839999999999 S
   0.5006619999999991    0.1469160000000000    0.6559159999999991 S
