Rb6 Ta4 As2 S22
1.0
   6.6298519999999996    7.4014129999999998    0.0000000000000000
  -6.6298519999999996    7.4014129999999998    0.0000000000000000
   0.0000000000000000    1.4655170000000000    9.6844289999999997
Rb Ta As S
6 4 2 22
direct
   0.3063100000000000    0.4608330000000000    0.3397640000000000 Rb
   0.4608330000000000    0.3063100000000000    0.8397640000000000 Rb
   0.5673389999999990    0.6997470000000000    0.6696920000000000 Rb
   0.6997470000000000    0.5673389999999990    0.1696919999999990 Rb
   0.9331919999999990    0.0952000000000000    0.9267470000000000 Rb
   0.0952000000000000    0.9331919999999990    0.4267470000000000 Rb
   0.2020980000000000    0.6622230000000000    0.9464730000000000 Ta
   0.6622230000000000    0.2020980000000000    0.4464729999999990 Ta
   0.9552400000000001    0.5381009999999991    0.7613500000000001 Ta
   0.5381009999999991    0.9552400000000001    0.2613500000000000 Ta
   0.0064659999999990    0.3235059999999990    0.5031840000000000 As
   0.3235059999999990    0.0064659999999990    0.0031839999999990 As
   0.2192700000000000    0.6364420000000000    0.6960489999999990 S
   0.6364420000000000    0.2192700000000000    0.1960490000000000 S
   0.2307479999999990    0.8338880000000000    0.7467640000000000 S
   0.8338880000000000    0.2307479999999990    0.2467639999999990 S
   0.4122309999999990    0.5836479999999999    0.9985609999999990 S
   0.5836479999999999    0.4122309999999990    0.4985610000000000 S
   0.1213279999999990    0.3364890000000000    0.6927850000000000 S
   0.3364890000000000    0.1213279999999990    0.1927849999999990 S
   0.5531460000000000    0.0528700000000000    0.6377579999999990 S
   0.0528700000000000    0.5531460000000000    0.1377580000000000 S
   0.7709420000000000    0.4355710000000000    0.8489460000000000 S
   0.4355710000000000    0.7709420000000000    0.3489460000000000 S
   0.9190830000000000    0.5425249999999990    0.5129480000000000 S
   0.5425249999999990    0.9190830000000000    0.0129480000000000 S
   0.8816710000000000    0.7816059999999990    0.7067150000000000 S
   0.7816059999999990    0.8816710000000000    0.2067149999999990 S
   0.8541920000000000    0.1732650000000000    0.5958100000000001 S
   0.1732650000000000    0.8541920000000000    0.0958100000000000 S
   0.0984340000000000    0.4389780000000000    0.9693179999999991 S
   0.4389780000000000    0.0984340000000000    0.4693179999999990 S
   0.9262859999999991    0.7276319999999999    0.9084869999999990 S
   0.7276319999999999    0.9262859999999991    0.4084870000000000 S
