K6 Gd2 As4 S16
1.0
   0.0234880000000000    0.0000000000000000   -9.0088299999999997
   9.3126149999999992    0.0000000000000000    4.1773660000000001
  -4.6680510000000002   -9.5506510000000002    2.4157320000000002
K Gd As S
6 2 4 16
direct
   0.2549940000000000    0.0049940000000000    0.0099880000000000 K
   0.7450059999999999    0.9950059999999999    0.9900120000000000 K
   0.0000000000000000    0.5000000000000000    0.0000000000000000 K
   0.5000000000000000    0.5000000000000000    0.0000000000000000 K
   0.4879710000000000    0.7379709999999990    0.4759410000000000 K
   0.5120290000000000    0.2620290000000000    0.5240589999999991 K
   0.0069400000000000    0.7569400000000001    0.5138800000000000 Gd
   0.9930600000000001    0.2430600000000000    0.4861200000000001 Gd
   0.7408169999999999    0.3431170000000000    0.2479100000000000 As
   0.0070929999999990    0.9047930000000000    0.2479100000000000 As
   0.2591830000000000    0.6568830000000000    0.7520900000000000 As
   0.9929070000000000    0.0952070000000000    0.7520900000000000 As
   0.6380660000000000    0.2653540000000000    0.0245720000000000 S
   0.8865059999999990    0.7592179999999999    0.0245720000000000 S
   0.3619340000000000    0.7346460000000000    0.9754280000000000 S
   0.1134940000000000    0.2407820000000000    0.9754280000000000 S
   0.3441200000000000    0.8672320000000000    0.7085170000000000 S
   0.8643970000000000    0.8412849999999999    0.7085170000000000 S
   0.6558800000000000    0.1327680000000000    0.2914830000000000 S
   0.1356030000000000    0.1587150000000000    0.2914830000000000 S
   0.9678150000000000    0.5272829999999999    0.6526440000000000 S
   0.1848290000000000    0.1253610000000000    0.6526440000000000 S
   0.0321850000000000    0.4727170000000000    0.3473560000000000 S
   0.8151710000000000    0.8746389999999991    0.3473560000000000 S
   0.2030509999999990    0.8574790000000000    0.3563650000000000 S
   0.6533140000000000    0.4988860000000000    0.3563650000000000 S
   0.7969490000000000    0.1425209999999990    0.6436350000000000 S
   0.3466860000000000    0.5011139999999999    0.6436350000000000 S
