As4 C12 S12 N4 F40
1.0
   8.1676599999999997    0.0000000000000000    0.0000000000000000
   0.0000000000000000   10.7591549999999998    0.0000000000000000
   0.0000000000000000    2.0552169999999998   12.9785850000000007
As C S N F
4 12 12 4 40
direct
   0.8753839999999991    0.7044889999999990    0.7271800000000000 As
   0.1246159999999990    0.2955109999999990    0.2728200000000000 As
   0.3753840000000000    0.2955109999999990    0.7728200000000001 As
   0.6246159999999999    0.7044889999999990    0.2271800000000000 As
   0.3077200000000000    0.8810910000000000    0.5400290000000000 C
   0.6922800000000000    0.1189090000000000    0.4599709999999990 C
   0.8077200000000001    0.1189090000000000    0.9599709999999990 C
   0.1922800000000000    0.8810910000000000    0.0400289999999990 C
   0.0371250000000000    0.9409350000000000    0.9800989999999991 C
   0.9628749999999990    0.0590650000000000    0.0199010000000000 C
   0.5371250000000000    0.0590650000000000    0.5199009999999999 C
   0.4628750000000000    0.9409350000000000    0.4800990000000000 C
   0.2601790000000000    0.7702380000000000    0.9923909999999990 C
   0.7398210000000000    0.2297620000000000    0.0076089999999990 C
   0.7601789999999990    0.2297620000000000    0.5076090000000000 C
   0.2398209999999990    0.7702380000000000    0.4923909999999990 C
   0.2686130000000000    0.5398450000000000    0.9719920000000000 S
   0.7313870000000000    0.4601550000000000    0.0280079999999990 S
   0.7686130000000000    0.4601550000000000    0.5280079999999990 S
   0.2313869999999990    0.5398450000000000    0.4719919999999990 S
   0.4601420000000000    0.6240820000000000    0.8756640000000000 S
   0.5398579999999999    0.3759180000000000    0.1243359999999990 S
   0.9601419999999991    0.3759180000000000    0.6243360000000000 S
   0.0398580000000000    0.6240820000000000    0.3756640000000000 S
   0.4244580000000000    0.8020450000000000    0.9071589999999990 S
   0.5755420000000000    0.1979550000000000    0.0928409999999990 S
   0.9244580000000000    0.1979550000000000    0.5928410000000000 S
   0.0755420000000000    0.8020450000000000    0.4071590000000000 S
   0.3011830000000000    0.6591520000000000    0.5168570000000000 N
   0.6988170000000000    0.3408480000000000    0.4831430000000000 N
   0.8011830000000000    0.3408480000000000    0.9831430000000000 N
   0.1988170000000000    0.6591520000000000    0.0168570000000000 N
   0.3479270000000000    0.8401790000000000    0.6400600000000001 F
   0.6520730000000000    0.1598210000000000    0.3599400000000000 F
   0.8479270000000000    0.1598210000000000    0.8599400000000000 F
   0.1520729999999990    0.8401790000000000    0.1400600000000000 F
   0.0642480000000000    0.7342160000000000    0.7846069999999991 F
   0.9357519999999990    0.2657839999999990    0.2153930000000000 F
   0.5642480000000000    0.2657839999999990    0.7153929999999999 F
   0.4357520000000000    0.7342160000000000    0.2846070000000000 F
   0.9816300000000001    0.6212050000000000    0.6369310000000000 F
   0.0183700000000000    0.3787950000000000    0.3630690000000000 F
   0.4816300000000001    0.3787950000000000    0.8630690000000000 F
   0.5183700000000000    0.6212050000000000    0.1369310000000000 F
   0.8967210000000000    0.8448810000000000    0.6392059999999991 F
   0.1032790000000000    0.1551189999999990    0.3607940000000000 F
   0.3967210000000000    0.1551189999999990    0.8607939999999999 F
   0.6032790000000000    0.8448810000000000    0.1392060000000000 F
   0.7648700000000000    0.7834030000000000    0.8142809999999990 F
   0.2351300000000000    0.2165969999999990    0.1857190000000000 F
   0.2648700000000000    0.2165969999999990    0.6857190000000000 F
   0.7351300000000001    0.7834030000000000    0.3142810000000000 F
   0.3614620000000000    0.4389630000000000    0.6859609999999990 F
   0.6385379999999991    0.5610370000000000    0.3140390000000000 F
   0.8614620000000000    0.5610370000000000    0.8140390000000000 F
   0.1385380000000000    0.4389630000000000    0.1859610000000000 F
   0.1895119999999990    0.3305690000000000    0.8317789999999990 F
   0.8104880000000000    0.6694310000000000    0.1682209999999990 F
   0.6895120000000000    0.6694310000000000    0.6682210000000000 F
   0.3104880000000000    0.3305690000000000    0.3317790000000000 F
   0.1868290000000000    0.9697950000000000    0.5355839999999999 F
   0.8131710000000000    0.0302050000000000    0.4644160000000000 F
   0.6868290000000000    0.0302050000000000    0.9644159999999991 F
   0.3131710000000000    0.9697950000000000    0.0355840000000000 F
   0.9212849999999990    0.8494980000000000    0.9867520000000000 F
   0.0787150000000000    0.1505020000000000    0.0132480000000000 F
   0.4212849999999990    0.1505020000000000    0.5132479999999990 F
   0.5787150000000000    0.8494980000000000    0.4867519999999990 F
   0.0834029999999990    0.9753780000000000    0.8796130000000000 F
   0.9165970000000000    0.0246219999999990    0.1203870000000000 F
   0.5834030000000000    0.0246219999999990    0.6203870000000000 F
   0.4165970000000000    0.9753780000000000    0.3796130000000000 F
