Cu4 As28 P4 S28 Br4
1.0
  13.7236440000000002    0.0000000000000000    0.0000000000000000
   0.0000000000000000    9.8119230000000002    0.0000000000000000
   0.0000000000000000    1.6149420000000001   14.0766179999999999
Cu As P S Br
4 28 4 28 4
direct
   0.6708000000000001    0.6156779999999999    0.2863279999999990 Cu
   0.1708000000000000    0.3843220000000000    0.2136720000000000 Cu
   0.3292000000000000    0.3843220000000000    0.7136720000000000 Cu
   0.8292000000000000    0.6156779999999999    0.7863279999999990 Cu
   0.5508069999999990    0.1568920000000000    0.2979190000000000 As
   0.0508070000000000    0.8431080000000000    0.2020809999999990 As
   0.4491929999999990    0.8431080000000000    0.7020810000000000 As
   0.9491930000000000    0.1568920000000000    0.7979189999999990 As
   0.3995559999999990    0.0225450000000000    0.3470310000000000 As
   0.8995559999999990    0.9774550000000000    0.1529690000000000 As
   0.6004440000000000    0.9774550000000000    0.6529690000000000 As
   0.1004439999999990    0.0225450000000000    0.8470310000000000 As
   0.4451900000000000    0.0689610000000000    0.1740890000000000 As
   0.9451900000000001    0.9310389999999999    0.3259110000000000 As
   0.5548100000000000    0.9310389999999999    0.8259110000000000 As
   0.0548100000000000    0.0689610000000000    0.6740889999999991 As
   0.7556330000000000    0.3563630000000000    0.1626469999999990 As
   0.2556330000000000    0.6436370000000000    0.3373529999999990 As
   0.2443670000000000    0.6436370000000000    0.8373530000000000 As
   0.7443670000000000    0.3563630000000000    0.6626470000000000 As
   0.8610319999999990    0.5286970000000000    0.0524479999999990 As
   0.3610319999999990    0.4713029999999990    0.4475520000000000 As
   0.1389679999999990    0.4713029999999990    0.9475519999999999 As
   0.6389680000000000    0.5286970000000000    0.5524479999999991 As
   0.6131090000000000    0.5866220000000000    0.0086520000000000 As
   0.1131090000000000    0.4133779999999990    0.4913479999999991 As
   0.3868910000000000    0.4133779999999990    0.9913480000000000 As
   0.8868910000000000    0.5866220000000000    0.5086520000000000 As
   0.6718740000000000    0.3754659999999990    0.9270529999999990 As
   0.1718740000000000    0.6245339999999990    0.5729470000000000 As
   0.3281260000000000    0.6245339999999990    0.0729470000000000 As
   0.8281259999999990    0.3754659999999990    0.4270529999999990 As
   0.5886690000000000    0.8135610000000000    0.2882360000000000 P
   0.0886690000000000    0.1864390000000000    0.2117639999999990 P
   0.4113310000000000    0.1864390000000000    0.7117640000000000 P
   0.9113310000000000    0.8135610000000000    0.7882359999999990 P
   0.6648600000000000    0.9891519999999990    0.3178580000000000 S
   0.1648600000000000    0.0108480000000000    0.1821420000000000 S
   0.3351400000000000    0.0108480000000000    0.6821419999999990 S
   0.8351400000000001    0.9891519999999990    0.8178580000000000 S
   0.4699160000000000    0.8136450000000000    0.3831420000000000 S
   0.9699160000000000    0.1863550000000000    0.1168579999999990 S
   0.5300840000000000    0.1863550000000000    0.6168580000000000 S
   0.0300840000000000    0.8136450000000000    0.8831420000000000 S
   0.5257260000000000    0.8721669999999990    0.1552510000000000 S
   0.0257260000000000    0.1278330000000000    0.3447489999999990 S
   0.4742740000000000    0.1278330000000000    0.8447490000000000 S
   0.9742740000000000    0.8721669999999990    0.6552509999999990 S
   0.6176610000000000    0.4859429999999990    0.1637110000000000 S
   0.1176609999999990    0.5140570000000000    0.3362890000000000 S
   0.3823390000000000    0.5140570000000000    0.8362889999999999 S
   0.8823390000000000    0.4859429999999990    0.6637109999999991 S
   0.6977570000000000    0.2225400000000000    0.0558769999999990 S
   0.1977570000000000    0.7774600000000000    0.4441230000000000 S
   0.3022430000000000    0.7774600000000000    0.9441229999999990 S
   0.8022429999999990    0.2225400000000000    0.5558770000000000 S
   0.8333360000000000    0.4355719999999990    0.9112950000000000 S
   0.3333359999999990    0.5644279999999990    0.5887049999999990 S
   0.1666639999999990    0.5644279999999990    0.0887049999999990 S
   0.6666639999999990    0.4355719999999990    0.4112949999999990 S
   0.7539420000000000    0.6999869999999990    0.0160720000000000 S
   0.2539420000000000    0.3000130000000000    0.4839279999999990 S
   0.2460580000000000    0.3000130000000000    0.9839279999999990 S
   0.7460580000000000    0.6999869999999990    0.5160720000000000 S
   0.8528859999999990    0.6450330000000000    0.2619260000000000 Br
   0.3528860000000000    0.3549670000000000    0.2380739999999990 Br
   0.1471140000000000    0.3549670000000000    0.7380740000000000 Br
   0.6471140000000000    0.6450330000000000    0.7619260000000000 Br
