Ag6 As2 S8
1.0
   6.6333577100000003    0.0000000000000000    0.0000000000000000
   0.0000000000000000    6.9463108000000000    0.0000000000000000
   0.0000000000000000    0.0000000000000000    7.8419814500000005
Ag As S
6 2 8
direct
   0.9882683000000000    0.1480732300000000    0.5000000000000000 Ag
   0.0152334700000000    0.6847196700000000    0.7606465400000000 Ag
   0.5152334700000000    0.3152803300000000    0.7393534600000000 Ag
   0.4882683000000000    0.8519267700000001   -0.0000000000000000 Ag
   0.5152334700000000    0.3152803300000000    0.2606465400000000 Ag
   0.0152334700000000    0.6847196700000000    0.2393534600000000 Ag
   0.4972016100000000    0.8181869100000000    0.5000000000000000 As
   0.9972016100000001    0.1818130900000000   -0.0000000000000000 As
   0.3908951600000000    0.6642986900000000    0.2709071800000000 S
   0.8908951600000000    0.3357013100000000    0.2290928200000000 S
   0.8908951600000000    0.3357013100000000    0.7709071800000000 S
   0.3908951600000000    0.6642986900000000    0.7290928200000000 S
   0.3266725900000000    0.1846873800000000   -0.0000000000000000 S
   0.8735012400000001    0.8891206100000000   -0.0000000000000000 S
   0.8266725900000000    0.8153126200000000    0.5000000000000000 S
   0.3735012400000000    0.1108793900000000    0.5000000000000000 S
