Sn3 Sb1 Se2 I5
1.0
   2.1880030000000001    7.1941819999999996    0.0000000000000000
  -2.1880030000000001    7.1941819999999996    0.0000000000000000
   0.0000000000000000    1.8608400000000000   12.5810829999999996
Sn Sb Se I
3 1 2 5
direct
   0.6278589999999999    0.6278589999999999    0.4821880000000000 Sn
   0.3693720000000000    0.3693720000000000    0.5232660000000000 Sn
   0.6518459999999990    0.6518459999999990    0.8272000000000000 Sn
   0.3532360000000000    0.3532360000000000    0.1813810000000000 Sb
   0.7620020000000000    0.7620020000000000    0.6160840000000000 Se
   0.2397639999999990    0.2397639999999990    0.3790730000000000 Se
   0.7147019999999999    0.7147019999999999    0.1367640000000000 I
   0.2935560000000000    0.2935560000000000    0.8629289999999999 I
   0.9565690000000000    0.9565690000000000    0.3126830000000000 I
   0.0387440000000000    0.0387440000000000    0.6690760000000000 I
   0.9923500000000001    0.9923500000000001    0.0093560000000000 I
