Nb6 Sb4 Te10
1.0
   8.0894682099999997   -0.0000000200000000   -2.8600583600000000
  -4.0447351400000002    7.0056857900000002   -2.8600583600000000
   0.0000000100000000    0.0000000200000000    8.5801781599999991
Nb Sb Te
6 4 10
direct
  -0.0000000000000000    0.3426839300000000    0.3426839300000000 Nb
   0.3426839300000000   -0.0000000000000000    0.3426839300000000 Nb
   0.6573160700000000    0.0000000000000000    0.6573160700000000 Nb
   0.6573160700000000    0.6573160700000000   -0.0000000000000000 Nb
   0.3426839300000000    0.3426839300000000    0.0000000000000000 Nb
   0.0000000000000000    0.6573160700000000    0.6573160700000000 Nb
   0.3332774800000000   -0.0000000000000000   -0.0000000000000000 Sb
  -0.0000000000000000    0.3332774800000000    0.0000000000000000 Sb
   0.6667225200000000    0.6667225200000000    0.6667225200000000 Sb
   0.0000000000000000    0.0000000000000000    0.3332774800000000 Sb
   0.3251833400000000    0.3251833400000000    0.3251833400000000 Te
   0.2500000000000000    0.7500000000000000    0.5000000000000000 Te
   0.0000000000000000    0.6748166600000001   -0.0000000000000000 Te
   0.5000000000000000    0.7500000000000000    0.2500000000000000 Te
   0.7500000000000000    0.2500000000000000    0.5000000000000000 Te
   0.5000000000000000    0.2500000000000000    0.7500000000000000 Te
   0.6748166600000001    0.0000000000000000    0.0000000000000000 Te
  -0.0000000000000000   -0.0000000000000000    0.6748166600000001 Te
   0.2500000000000000    0.5000000000000000    0.7500000000000000 Te
   0.7500000000000000    0.5000000000000000    0.2500000000000000 Te
