Sn8 Sb12 S26
1.0
   1.9167120000000000   16.8781500000000015    0.0000000000000000
  -1.9167120000000000   16.8781500000000015    0.0000000000000000
   0.0000000000000000   16.6524070000000002   18.5687970000000000
Sn Sb S
8 12 26
direct
   0.1982759999999990    0.1982759999999990    0.1015140000000000 Sn
   0.6462820000000000    0.6462820000000000    0.8367680000000000 Sn
   0.4290440000000000    0.4290440000000000    0.6965469999999990 Sn
   0.5477820000000000    0.5477820000000000    0.5113369999999990 Sn
   0.4522179999999990    0.4522179999999990    0.4886629999999990 Sn
   0.5709560000000000    0.5709560000000000    0.3034530000000000 Sn
   0.8017240000000000    0.8017240000000000    0.8984860000000000 Sn
   0.3537180000000000    0.3537180000000000    0.1632320000000000 Sn
   0.3279390000000000    0.3279390000000000    0.3320210000000000 Sb
   0.6720610000000000    0.6720610000000000    0.6679790000000000 Sb
   0.8213239999999991    0.8213239999999991    0.6930060000000000 Sb
   0.4886419999999990    0.4886419999999990    0.0963740000000000 Sb
   0.5113580000000000    0.5113580000000000    0.9036259999999990 Sb
   0.1786760000000000    0.1786760000000000    0.3069940000000000 Sb
   0.8675970000000000    0.8675970000000000    0.9929589999999990 Sb
   0.0273619999999990    0.0273619999999990    0.7511510000000000 Sb
   0.9726380000000000    0.9726380000000000    0.2488490000000000 Sb
   0.8559059999999999    0.8559059999999999    0.4777010000000000 Sb
   0.1440940000000000    0.1440940000000000    0.5222990000000000 Sb
   0.1324030000000000    0.1324030000000000    0.0070409999999990 Sb
   0.9236350000000000    0.9236350000000000    0.2028200000000000 S
   0.2107689999999990    0.2107689999999990    0.7575550000000000 S
   0.6863530000000000    0.6863530000000000    0.0418819999999990 S
   0.7892310000000000    0.7892310000000000    0.2424450000000000 S
   0.3136470000000000    0.3136470000000000    0.9581179999999990 S
   0.6798729999999999    0.6798729999999999    0.9110090000000000 S
   0.0577400000000000    0.0577400000000000    0.0007300000000000 S
   0.0802640000000000    0.0802640000000000    0.4056510000000000 S
   0.0878660000000000    0.0878660000000000    0.2181229999999990 S
   0.4633810000000000    0.4633810000000000    0.8563210000000000 S
   0.0474879999999990    0.0474879999999990    0.5956279999999990 S
   0.6535449999999990    0.6535449999999990    0.4412310000000000 S
   0.9197360000000000    0.9197360000000000    0.5943490000000000 S
   0.3960249999999990    0.3960249999999990    0.3460950000000000 S
   0.6039749999999990    0.6039749999999990    0.6539050000000000 S
   0.9422600000000001    0.9422600000000001    0.9992700000000001 S
   0.3217660000000000    0.3217660000000000    0.7631910000000000 S
   0.9121340000000000    0.9121340000000000    0.7818769999999990 S
   0.3201270000000000    0.3201270000000000    0.0889910000000000 S
   0.2234500000000000    0.2234500000000000    0.5776859999999990 S
   0.6782340000000000    0.6782340000000000    0.2368090000000000 S
   0.9525119999999990    0.9525119999999990    0.4043720000000000 S
   0.7765500000000001    0.7765500000000001    0.4223139999999990 S
   0.5366190000000000    0.5366190000000000    0.1436790000000000 S
   0.0763650000000000    0.0763650000000000    0.7971800000000001 S
   0.3464549999999990    0.3464549999999990    0.5587690000000000 S
