Sb1 S24 I3
1.0
   7.4574126400000003  -12.6416357799999997   -0.1005483100000000
   7.4574126400000003   12.6416357799999997   -0.1005483100000000
 -13.9077930799999994   -0.0000000000000000    4.6912000100000002
Sb S I
1 24 3
direct
   0.3066007800000000    0.3066007800000000    0.3066007800000000 Sb
   0.9967034400000000    0.5943239600000000    0.5943239600000000 S
   0.5943239600000000    0.5943239600000000    0.9967034400000000 S
   0.5943239600000000    0.9967034400000000    0.5943239600000000 S
   0.2404550900000000    0.8551209400000001    0.7239577600000000 S
   0.8551209400000001    0.7239577600000000    0.2404550900000000 S
   0.7239577600000000    0.2404550900000000    0.8551209400000001 S
   0.8551209400000001    0.2404550900000000    0.7239577600000000 S
   0.2404550900000000    0.7239577600000000    0.8551209400000001 S
   0.7239577600000000    0.8551209400000001    0.2404550900000000 S
   0.0927171900000000    0.6239767100000000    0.4367620500000000 S
   0.6239767100000000    0.4367620500000000    0.0927171900000000 S
   0.4367620500000000    0.0927171900000000    0.6239767100000000 S
   0.6239767100000000    0.0927171900000000    0.4367620500000000 S
   0.0927171900000000    0.4367620500000000    0.6239767100000000 S
   0.4367620500000000    0.6239767100000000    0.0927171900000000 S
   0.3687939500000000    0.7559822600000000    0.6236126600000000 S
   0.7559822600000000    0.6236126600000000    0.3687939500000000 S
   0.6236126600000000    0.3687939500000000    0.7559822600000000 S
   0.7559822600000000    0.3687939500000000    0.6236126600000000 S
   0.3687939500000000    0.6236126600000000    0.7559822600000000 S
   0.6236126600000000    0.7559822600000000    0.3687939500000000 S
   0.1821833700000000    0.4585330999999990    0.4585330999999990 S
   0.4585330999999990    0.4585330999999990    0.1821833700000000 S
   0.4585330999999990    0.1821833700000000    0.4585330999999990 S
   0.1138619400000000    0.9496410700000000    0.9496410700000000 I
   0.9496410700000000    0.9496410700000000    0.1138619400000000 I
   0.9496410700000000    0.1138619400000000    0.9496410700000000 I
