Co4 Bi24 S8 O64
1.0
  -0.0002150000000000   -5.6673439999999999    0.0002050000000000
  23.4488260000000004    0.0016049999999990  -20.5996510000000015
   5.8301590000000001    2.8336749999999999    6.2372740000000002
Co Bi S O
4 24 8 64
direct
   0.1079929999999990    0.4999800000000000    0.0000550000000000 Co
   0.6078930000000000    0.2499880000000000    0.9999830000000000 Co
   0.6573129999999990    0.7500100000000001    0.0001030000000000 Co
   0.1081029999999990    0.0000140000000000    0.9999260000000000 Co
   0.4503550000000000    0.6651460000000000    0.6490469999999990 Bi
   0.9479540000000000    0.9156019999999990    0.6448929999999991 Bi
   0.4503620000000000    0.1651280000000000    0.6474259999999999 Bi
   0.9504070000000000    0.4151019999999990    0.6474759999999991 Bi
   0.3030549999999990    0.5844150000000000    0.3551030000000000 Bi
   0.8013819999999990    0.8348700000000001    0.3510379999999990 Bi
   0.3029739999999990    0.0848910000000000    0.3525770000000000 Bi
   0.8028930000000000    0.3348710000000000    0.3526209999999990 Bi
   0.9762600000000001    0.5875220000000000    0.6925900000000000 Bi
   0.4744460000000000    0.8380300000000001    0.6923849999999990 Bi
   0.9767570000000000    0.0875720000000000    0.6925330000000000 Bi
   0.4767710000000000    0.3375500000000000    0.6925180000000000 Bi
   0.7821900000000001    0.6619740000000000    0.3075890000000000 Bi
   0.2838440000000000    0.9124859999999990    0.3073680000000000 Bi
   0.7844460000000000    0.1624410000000000    0.3074980000000000 Bi
   0.2843270000000000    0.4124259999999990    0.3074639999999990 Bi
   0.0570570000000000    0.6666839999999991    0.0105240000000000 Bi
   0.5527500000000001    0.9180079999999990    0.0073479999999990 Bi
   0.0528429999999990    0.1679110000000000    0.0077610000000000 Bi
   0.5528219999999990    0.4178929999999990    0.0077960000000000 Bi
   0.5453700000000000    0.5819730000000000    0.9926039999999990 Bi
   0.0464840000000000    0.8333260000000000    0.9894250000000000 Bi
   0.5450910000000000    0.0821210000000000    0.9921620000000000 Bi
   0.0450620000000000    0.3320770000000000    0.9922169999999991 Bi
   0.0350350000000000    0.7462040000000000    0.7219089999999990 S
   0.5312740000000000    0.9961319999999991    0.7150970000000000 S
   0.0311439999999990    0.2460649999999990    0.7150470000000000 S
   0.5311089999999991    0.4960440000000000    0.7151010000000000 S
   0.8161579999999991    0.5038549999999991    0.2849210000000000 S
   0.3133150000000000    0.7538210000000000    0.2781659999999990 S
   0.8160029999999990    0.0039490000000000    0.2847949999999990 S
   0.3159869999999990    0.2539230000000000    0.2849300000000000 S
   0.1299610000000000    0.6249920000000000    0.5012489999999999 O
   0.6287849999999990    0.8750230000000000    0.4987790000000000 O
   0.1298730000000000    0.1250089999999990    0.4999820000000000 O
   0.6298340000000000    0.3749949999999990    0.5000320000000000 O
   0.6098140000000000    0.6251280000000000    0.5004240000000000 O
   0.1094639999999990    0.8749000000000000    0.4996000000000000 O
   0.6106590000000000    0.1250140000000000    0.4999940000000000 O
   0.1106289999999990    0.3749869999999990    0.5000400000000000 O
   0.3038869999999990    0.7383489999999990    0.8125439999999990 O
   0.8022089999999999    0.9881930000000000    0.8059000000000001 O
   0.3020609999999990    0.2381080000000000    0.8058600000000000 O
   0.8019710000000000    0.4880750000000000    0.8059919999999990 O
   0.9963689999999999    0.5117760000000000    0.1941439999999990 O
   0.4914460000000000    0.7616370000000000    0.1874279999999990 O
   0.9960300000000001    0.0118960000000000    0.1939239999999990 O
   0.4960070000000000    0.2618459999999990    0.1940230000000000 O
   0.8793040000000000    0.7309890000000000    0.8228850000000000 O
   0.3776230000000000    0.9804820000000000    0.8147120000000000 O
   0.8774430000000000    0.2303069999999990    0.8145319999999990 O
   0.3773010000000000    0.4802720000000000    0.8144910000000000 O
   0.5629520000000000    0.5195290000000000    0.1853030000000000 O
   0.0566329999999990    0.7690490000000000    0.1772530000000000 O
   0.5628240000000000    0.0197150000000000    0.1853439999999990 O
   0.0628370000000000    0.2696960000000000    0.1855190000000000 O
   0.9687429999999990    0.7216330000000000    0.5773889999999990 O
   0.4709239999999990    0.9721029999999991    0.5697230000000000 O
   0.9708270000000000    0.2220960000000000    0.5695110000000000 O
   0.4708009999999990    0.4721490000000000    0.5694460000000000 O
   0.9013160000000000    0.5279140000000000    0.4302740000000000 O
   0.3918700000000001    0.7784139999999991    0.4226310000000000 O
   0.9013789999999990    0.0278789999999990    0.4303760000000000 O
   0.4015050000000000    0.2778940000000000    0.4304429999999990 O
   0.4881140000000000    0.5433740000000000    0.6850440000000000 O
   0.9891660000000000    0.7934500000000001    0.6889240000000000 O
   0.4882769999999990    0.0434460000000000    0.6845760000000000 O
   0.9880570000000000    0.2933800000000000    0.6847360000000000 O
   0.3002400000000000    0.7065850000000000    0.3112189999999990 O
   0.8029390000000000    0.9566300000000001    0.3149590000000000 O
   0.3029790000000000    0.2066090000000000    0.3152689999999990 O
   0.8034829999999999    0.4565590000000000    0.3155250000000000 O
   0.1712880000000000    0.5579720000000000    0.9413290000000000 O
   0.6688839999999990    0.8099139999999990    0.9417500000000001 O
   0.1713300000000000    0.0580549999999990    0.9412649999999990 O
   0.6713200000000000    0.3080050000000000    0.9412779999999999 O
   0.7270980000000000    0.6900790000000000    0.0581939999999990 O
   0.2299330000000000    0.9420130000000000    0.0586080000000000 O
   0.7300300000000001    0.1919739999999990    0.0586840000000000 O
   0.2299659999999990    0.4419470000000000    0.0586750000000000 O
   0.3006430000000000    0.6288659999999990    0.8149590000000000 O
   0.7983410000000000    0.8799619999999990    0.8123269999999990 O
   0.3005190000000000    0.1290770000000000    0.8143629999999999 O
   0.8005740000000000    0.3790369999999990    0.8144089999999991 O
   0.9861390000000000    0.6200530000000000    0.1876739999999990 O
   0.4857849999999990    0.8711280000000000    0.1850560000000000 O
   0.9862489999999990    0.1209490000000000    0.1856010000000000 O
   0.4862479999999990    0.3709349999999990    0.1856290000000000 O
   0.7978170000000000    0.6312930000000000    0.8181550000000000 O
   0.2952470000000000    0.8820659999999990    0.8166620000000000 O
   0.7976460000000000    0.1314509999999990    0.8179560000000000 O
   0.2977329999999990    0.3814369999999990    0.8179759999999990 O
   0.4787240000000000    0.6179190000000000    0.1833630000000000 O
   0.9797910000000000    0.8687090000000000    0.1818860000000000 O
   0.4799239999999990    0.1185450000000000    0.1820949999999990 O
   0.9798620000000000    0.3685230000000000    0.1821110000000000 O
