Li3 Sb11 S18
1.0
   6.8963770000000002    0.0000000000000000    0.0000000000000000
   2.2598289999999999    7.5309159999999995    0.0000000000000000
   2.5279620000000000    3.2500089999999999   14.8811359999999997
Li Sb S
3 11 18
direct
   0.9974540000000000    0.7391759999999991    0.5073100000000000 Li
   0.8886179999999990    0.6237790000000000    0.8061880000000000 Li
   0.0095389999999990    0.2547109999999990    0.5015600000000000 Li
   0.2915640000000000    0.2099170000000000    0.9258440000000000 Sb
   0.1432500000000000    0.8721690000000000    0.1862619999999990 Sb
   0.5270159999999990    0.5708930000000000    0.6175500000000000 Sb
   0.4771300000000001    0.9354979999999991    0.3833720000000000 Sb
   0.2895680000000000    0.7138580000000000    0.9239959999999990 Sb
   0.7147350000000000    0.2907000000000000    0.0662480000000000 Sb
   0.1434659999999990    0.3680970000000000    0.1850010000000000 Sb
   0.5227809999999991    0.0541160000000000    0.6164959999999990 Sb
   0.4827579999999990    0.4317320000000000    0.3902770000000000 Sb
   0.8853340000000000    0.1235530000000000    0.8086639999999991 Sb
   0.7163010000000000    0.7826419999999999    0.0679449999999990 Sb
   0.9907130000000000    0.0046990000000000    0.0029690000000000 S
   0.1340049999999990    0.3206960000000000    0.7780330000000000 S
   0.5393040000000000    0.4304240000000000    0.8736300000000000 S
   0.2071029999999990    0.7751370000000000    0.3532090000000000 S
   0.7133649999999990    0.5849500000000001    0.4637529999999990 S
   0.9726420000000000    0.5081270000000000    0.9989030000000000 S
   0.1336640000000000    0.8301850000000000    0.7760469999999990 S
   0.2852040000000000    0.9113650000000000    0.5359680000000000 S
   0.7745860000000000    0.7311970000000000    0.6524749999999990 S
   0.4393289999999990    0.0807929999999990    0.1294519999999990 S
   0.5460459999999990    0.9170210000000000    0.8809549999999990 S
   0.2105620000000000    0.2649280000000000    0.3503790000000000 S
   0.7134590000000000    0.0924860000000000    0.4636639999999990 S
   0.8667340000000000    0.1784170000000000    0.2207500000000000 S
   0.2731349999999990    0.4133159999999990    0.5354690000000000 S
   0.7941269999999990    0.2289840000000000    0.6468300000000000 S
   0.4478800000000001    0.5790560000000000    0.1282370000000000 S
   0.8686260000000000    0.6773760000000000    0.2225649999999990 S
