Rb12 Sb4 Se12
1.0
  10.2513344499999999    0.0000000000000000   -0.0000000000000000
  -0.0000000000000000   10.2513344499999999    0.0000000000000000
  -0.0000000000000000   -0.0000000000000000   10.2513344499999999
Rb Sb Se
12 4 12
direct
   0.3166750000000000    0.3166750000000000    0.3166750000000000 Rb
   0.1833250000000000    0.6833250000000000    0.8166749999999990 Rb
   0.8166749999999990    0.1833250000000000    0.6833250000000000 Rb
   0.6833250000000000    0.8166749999999990    0.1833250000000000 Rb
   0.5768566100000000    0.5768566100000000    0.5768566100000000 Rb
   0.9231433900000000    0.4231433900000000    0.0768566100000000 Rb
   0.0768566100000000    0.9231433900000000    0.4231433900000000 Rb
   0.4231433900000000    0.0768566100000000    0.9231433900000000 Rb
   0.8115508600000000    0.8115508600000000    0.8115508600000000 Rb
   0.6884491400000000    0.1884491400000000    0.3115508600000000 Rb
   0.3115508600000000    0.6884491400000000    0.1884491400000000 Rb
   0.1884491400000000    0.3115508600000000    0.6884491400000000 Rb
   0.0264127600000000    0.0264127600000000    0.0264127600000000 Sb
   0.4735872400000000    0.9735872400000000    0.5264127600000000 Sb
   0.5264127600000000    0.4735872400000000    0.9735872400000000 Sb
   0.9735872400000000    0.5264127600000000    0.4735872400000000 Sb
   0.2134956500000000    0.5990852700000000    0.4959015800000000 Se
   0.4959015800000000    0.2134956500000000    0.5990852700000000 Se
   0.5990852700000000    0.4959015800000000    0.2134956500000000 Se
   0.9009147300000000    0.5040984200000000    0.7134956500000000 Se
   0.9959015800000001    0.2865043500000000    0.4009147300000000 Se
   0.4009147300000000    0.9959015800000001    0.2865043500000000 Se
   0.0040984200000000    0.7865043500000000    0.0990852700000000 Se
   0.5040984200000000    0.7134956500000000    0.9009147300000000 Se
   0.0990852700000000    0.0040984200000000    0.7865043500000000 Se
   0.7134956500000000    0.9009147300000000    0.5040984200000000 Se
   0.7865043500000000    0.0990852700000000    0.0040984200000000 Se
   0.2865043500000000    0.4009147300000000    0.9959015800000001 Se
