Cs12 As4 P12 Se36
1.0
   8.1520106600000002    0.0000000000000000    0.0000000000000000
   0.0000000000000000   13.3600026300000003    0.0568310500000000
   0.0000000000000000    4.0624345100000001   19.5455024299999991
Cs As P Se
12 4 12 36
direct
   0.0317974900000000    0.3029224900000000    0.0791226400000000 Cs
   0.5317974900000000    0.1970775100000000    0.9208773600000000 Cs
   0.9682025100000000    0.6970775100000001    0.9208773600000000 Cs
   0.4682025100000000    0.8029224900000000    0.0791226400000000 Cs
   0.5275275100000000    0.0830464100000000    0.2604016100000000 Cs
   0.0275275100000000    0.4169535900000000    0.7395983900000000 Cs
   0.4724724900000000    0.9169535900000000    0.7395983900000000 Cs
   0.9724724900000000    0.5830464100000000    0.2604016100000000 Cs
   0.5212054400000000    0.3119433000000000    0.5676376400000001 Cs
   0.0212054400000000    0.1880567000000000    0.4323623600000000 Cs
   0.4787945600000000    0.6880567000000000    0.4323623600000000 Cs
   0.9787945600000000    0.8119432999999990    0.5676376400000001 Cs
   0.5020001900000000    0.4397129900000000    0.1770290400000000 As
   0.0020001900000000    0.0602870100000000    0.8229709600000000 As
   0.4979998100000000    0.5602870100000000    0.8229709600000000 As
  -0.0020001900000000    0.9397129900000000    0.1770290400000000 As
   0.6106636400000001    0.3459428900000000    0.3585615000000000 P
   0.1106636400000000    0.1540571100000000    0.6414385000000000 P
   0.3893363600000000    0.6540571100000000    0.6414385000000000 P
   0.8893363600000000    0.8459428900000000    0.3585615000000000 P
   0.8764818600000001    0.0675928900000000    0.6752887800000000 P
   0.3764818600000000    0.4324071100000000    0.3247112200000000 P
   0.1235181400000000    0.9324071100000000    0.3247112200000000 P
   0.6235181400000001    0.5675928900000000    0.6752887800000000 P
   0.6144122700000000    0.4556434800000000    0.0197004000000000 P
   0.1144122700000000    0.0443565200000000    0.9802995999999990 P
   0.3855877300000000    0.5443565200000000    0.9802995999999990 P
   0.8855877300000000    0.9556434800000000    0.0197004000000000 P
   0.7564009700000001    0.4382171200000000    0.4106047400000000 Se
   0.2564009700000000    0.0617828800000000    0.5893952600000000 Se
   0.2435990300000000    0.5617828800000000    0.5893952600000000 Se
   0.7435990300000000    0.9382171200000000    0.4106047400000000 Se
   0.5419847600000001    0.1966983900000000    0.4118477500000000 Se
   0.0419847600000000    0.3033016100000000    0.5881522500000000 Se
   0.4580152400000000    0.8033016100000000    0.5881522500000000 Se
   0.9580152400000000    0.6966983900000000    0.4118477500000000 Se
   0.7196687500000000    0.3437779100000000    0.2520569200000000 Se
   0.2196687500000000    0.1562220900000000    0.7479430800000000 Se
   0.2803312500000000    0.6562220900000000    0.7479430800000000 Se
   0.7803312500000000    0.8437779100000000    0.2520569200000000 Se
   0.7382614500000000    0.0468606100000000    0.5900311900000000 Se
   0.2382614500000000    0.4531393900000000    0.4099688100000000 Se
   0.2617385500000000    0.9531393900000000    0.4099688100000000 Se
   0.7617385500000000    0.5468606100000000    0.5900311900000000 Se
   0.0343568000000000    0.0744910900000000    0.2535756100000000 Se
   0.5343568000000000    0.4255089100000000    0.7464243900000000 Se
   0.9656431999999990    0.9255089100000000    0.7464243900000000 Se
   0.4656432000000000    0.5744910900000000    0.2535756100000000 Se
   0.2600566300000000    0.3422188700000000    0.2557636000000000 Se
   0.7600566300000000    0.1577811300000000    0.7442364000000000 Se
   0.7399433700000000    0.6577811300000000    0.7442364000000000 Se
   0.2399433700000000    0.8422188700000001    0.2557636000000000 Se
   0.7725895200000000    0.0478862900000000    0.0871800500000000 Se
   0.2725895200000000    0.4521137100000000    0.9128199500000000 Se
   0.2274104800000000    0.9521137100000000    0.9128199500000000 Se
   0.7274104800000000    0.5478862900000000    0.0871800500000000 Se
   0.5266957800000001    0.3099540600000000    0.0812481400000000 Se
   0.0266957800000000    0.1900459400000000    0.9187518600000000 Se
   0.4733042200000000    0.6900459400000000    0.9187518600000000 Se
   0.9733042200000001    0.8099540600000000    0.0812481400000000 Se
   0.2621197400000000    0.0586751400000000    0.0668722500000000 Se
   0.7621197400000000    0.4413248600000000    0.9331277500000000 Se
   0.7378802600000001    0.9413248600000000    0.9331277500000000 Se
   0.2378802600000000    0.5586751400000000    0.0668722500000000 Se
