Bi4 S6 O24
1.0
   8.0993146399999993   -4.6893557200000000    0.0072937200000000
   8.0993146399999993    4.6893557200000000    0.0072937200000000
   5.3773711100000003   -0.0000000000000000    7.6598233999999996
Bi S O
4 6 24
direct
   0.3603793100000000    0.3603793100000000    0.3603793100000000 Bi
   0.1396206900000000    0.1396206900000000    0.1396206900000000 Bi
   0.6396206900000000    0.6396206900000000    0.6396206900000000 Bi
   0.8603793100000000    0.8603793100000000    0.8603793100000000 Bi
   0.7500000000000000    0.0455163200000000    0.4544836800000000 S
   0.9544836800000001    0.5455163200000001    0.2500000000000000 S
   0.5455163200000001    0.2500000000000000    0.9544836800000001 S
   0.4544836800000000    0.7500000000000000    0.0455163200000000 S
   0.0455163200000000    0.4544836800000000    0.7500000000000000 S
   0.2500000000000000    0.9544836800000001    0.5455163200000001 S
   0.8936201300000001    0.0584567600000000    0.2852984600000000 O
   0.7147015400000000    0.1063798700000000    0.9415432400000000 O
   0.9082072999999991    0.4942045800000000    0.6892152900000000 O
   0.0057954200000000    0.5917926999999999    0.8107847100000000 O
   0.6063798700000000    0.2147015400000000    0.4415432400000000 O
   0.7852984600000000    0.5584567600000000    0.3936201300000000 O
   0.9415432400000000    0.7147015400000000    0.1063798700000000 O
   0.1892152900000000    0.9942045800000000    0.4082073000000000 O
   0.5057954200000000    0.3107847100000000    0.0917926999999990 O
   0.3107847100000000    0.0917926999999990    0.5057954200000000 O
   0.4082073000000000    0.1892152900000000    0.9942045800000000 O
   0.5584567600000000    0.3936201300000000    0.7852984600000000 O
   0.4415432400000000    0.6063798700000000    0.2147015400000000 O
   0.6892152900000000    0.9082072999999991    0.4942045800000000 O
   0.5917926999999999    0.8107847100000000    0.0057954200000000 O
   0.8107847100000000    0.0057954200000000    0.5917926999999999 O
   0.4942045800000000    0.6892152900000000    0.9082072999999991 O
   0.0584567600000000    0.2852984600000000    0.8936201300000001 O
   0.2147015400000000    0.4415432400000000    0.6063798700000000 O
   0.3936201300000000    0.7852984600000000    0.5584567600000000 O
   0.0917926999999990    0.5057954200000000    0.3107847100000000 O
   0.9942045800000000    0.4082073000000000    0.1892152900000000 O
   0.2852984600000000    0.8936201300000001    0.0584567600000000 O
   0.1063798700000000    0.9415432400000000    0.7147015400000000 O
