Cd1 In3 Te4 As1
1.0
   0.0112480000000000   -0.0161940000000000   -6.3978630000000001
   6.4269900000000000   -3.1850969999999998   -3.2181869999999999
  -3.1960549999999999   -6.3052440000000001    3.1882139999999999
Cd In Te As
1 3 4 1
direct
   0.0016029999999990    0.0088609999999990    0.0046250000000000 Cd
   0.5815420000000000    0.2067340000000000    0.3872810000000000 In
   0.2094909999999990    0.3959900000000000    0.8157310000000000 In
   0.8114020000000000    0.5902149999999990    0.1937640000000000 In
   0.3555629999999990    0.7038559999999990    0.8784369999999990 Te
   0.9737990000000000    0.8944420000000000    0.3238590000000000 Te
   0.5378360000000000    0.0812920000000000    0.6899940000000000 Te
   0.7307009999999990    0.5204100000000000    0.5082730000000000 Te
   0.1480630000000000    0.2982010000000000    0.0980350000000000 As
