Cs12 Bi4 Se12
1.0
  10.7307903499999995   -0.0000000000000000   -0.0000000000000000
   0.0000000000000000   10.7307903499999995    0.0000000000000000
   0.0000000000000000   -0.0000000000000000   10.7307903499999995
Cs Bi Se
12 4 12
direct
   0.1797695700000000    0.6797695700000000    0.8202304300000001 Cs
   0.3115261400000000    0.6884738600000000    0.1884738600000000 Cs
   0.9299110200000000    0.4299110200000000    0.0700889800000000 Cs
   0.8115261400000000    0.8115261400000000    0.8115261400000000 Cs
   0.4299110200000000    0.0700889800000000    0.9299110200000000 Cs
   0.6797695700000000    0.8202304300000001    0.1797695700000000 Cs
   0.5700889800000000    0.5700889800000000    0.5700889800000000 Cs
   0.8202304300000001    0.1797695700000000    0.6797695700000000 Cs
   0.6884738600000000    0.1884738600000000    0.3115261400000000 Cs
   0.0700889800000000    0.9299110200000000    0.4299110200000000 Cs
   0.1884738600000000    0.3115261400000000    0.6884738600000000 Cs
   0.3202304300000000    0.3202304300000000    0.3202304300000000 Cs
   0.5286244000000000    0.4713756000000000    0.9713756000000000 Bi
   0.0286243999999990    0.0286243999999990    0.0286243999999990 Bi
   0.9713756000000000    0.5286244000000000    0.4713756000000000 Bi
   0.4713756000000000    0.9713756000000000    0.5286244000000000 Bi
   0.2920019200000000    0.3968765100000000    0.9960581700000001 Se
   0.7920019200000000    0.1031234900000000    0.0039418300000000 Se
   0.7079980800000000    0.8968765100000000    0.5039418300000000 Se
   0.9960581700000001    0.2920019200000000    0.3968765100000000 Se
   0.8968765100000000    0.5039418300000000    0.7079980800000000 Se
   0.1031234900000000    0.0039418300000000    0.7920019200000000 Se
   0.2079980800000000    0.6031234900000000    0.4960581700000000 Se
   0.3968765100000000    0.9960581700000001    0.2920019200000000 Se
   0.6031234900000000    0.4960581700000000    0.2079980800000000 Se
   0.5039418300000000    0.7079980800000000    0.8968765100000000 Se
   0.0039418300000000    0.7920019200000000    0.1031234900000000 Se
   0.4960581700000000    0.2079980800000000    0.6031234900000000 Se
