K4 Ag6 Sb6 S14
1.0
   4.5859719999999999  -12.6837239999999998    0.0000000000000000
   4.5859719999999999   12.6837239999999998    0.0000000000000000
   0.0000000000000000    0.0000000000000000    6.9204540000000003
K Ag Sb S
4 6 6 14
direct
   0.4837349999999990    0.8972840000000000    0.6853500000000000 K
   0.8972840000000000    0.4837349999999990    0.6853500000000000 K
   0.5162650000000000    0.1027160000000000    0.1853500000000000 K
   0.1027160000000000    0.5162650000000000    0.1853500000000000 K
   0.6797949999999990    0.6797949999999990    0.3738809999999990 Ag
   0.3202049999999990    0.3202049999999990    0.8738809999999990 Ag
   0.4024669999999990    0.5829000000000000    0.6276459999999990 Ag
   0.5829000000000000    0.4024669999999990    0.6276459999999990 Ag
   0.5975330000000000    0.4171000000000000    0.1276459999999990 Ag
   0.4171000000000000    0.5975330000000000    0.1276459999999990 Ag
   0.9818279999999990    0.2378569999999990    0.6854830000000000 Sb
   0.2378569999999990    0.9818279999999990    0.6854830000000000 Sb
   0.0181720000000000    0.7621430000000000    0.1854829999999990 Sb
   0.7621430000000000    0.0181720000000000    0.1854829999999990 Sb
   0.8418209999999990    0.8418209999999990    0.8289390000000000 Sb
   0.1581790000000000    0.1581790000000000    0.3289390000000000 Sb
   0.6188720000000000    0.6188720000000000    0.0276690000000000 S
   0.3811279999999990    0.3811279999999990    0.5276689999999991 S
   0.8178289999999990    0.1942500000000000    0.4273230000000000 S
   0.1942500000000000    0.8178289999999990    0.4273230000000000 S
   0.1821710000000000    0.8057500000000001    0.9273230000000000 S
   0.8057500000000001    0.1821710000000000    0.9273230000000000 S
   0.1763060000000000    0.5179270000000000    0.6908559999999990 S
   0.5179270000000000    0.1763060000000000    0.6908559999999990 S
   0.8236939999999990    0.4820730000000000    0.1908560000000000 S
   0.4820730000000000    0.8236939999999990    0.1908560000000000 S
   0.8418789999999990    0.6932710000000000    0.6188530000000000 S
   0.6932710000000000    0.8418789999999990    0.6188530000000000 S
   0.1581209999999990    0.3067290000000000    0.1188530000000000 S
   0.3067290000000000    0.1581209999999990    0.1188530000000000 S
