Sb6 As2 S12
1.0
   3.7998880000000002    0.0000000000000000    0.0000000000000000
   0.0000000000000000   11.1521390000000000    0.0000000000000000
   0.0000000000000000    0.0000000000000000   12.0368239999999993
Sb As S
6 2 12
direct
   0.5000000000000000    0.5846370000000000    0.4631220000000000 Sb
   0.5000000000000000    0.4153630000000000    0.9631219999999990 Sb
   0.5000000000000000    0.2145100000000000    0.6396100000000000 Sb
   0.5000000000000000    0.7854900000000000    0.1396100000000000 Sb
   0.0000000000000000    0.2779910000000000    0.3572590000000000 Sb
   0.0000000000000000    0.7220090000000000    0.8572590000000000 Sb
   0.0000000000000000    0.9311069999999990    0.5484329999999999 As
   0.0000000000000000    0.0688930000000000    0.0484330000000000 As
   0.0000000000000000    0.3691569999999990    0.5455170000000000 S
   0.0000000000000000    0.6308429999999990    0.0455169999999990 S
   0.5000000000000000    0.1166880000000000    0.4545309999999990 S
   0.5000000000000000    0.8833120000000000    0.9545309999999990 S
   0.5000000000000000    0.8161640000000000    0.6167410000000000 S
   0.5000000000000000    0.1838360000000000    0.1167410000000000 S
   0.0000000000000000    0.6995410000000000    0.3731770000000000 S
   0.0000000000000000    0.3004590000000000    0.8731770000000000 S
   0.0000000000000000    0.0539290000000000    0.7015030000000000 S
   0.0000000000000000    0.9460710000000000    0.2015030000000000 S
   0.5000000000000000    0.4368510000000000    0.3001060000000000 S
   0.5000000000000000    0.5631490000000000    0.8001060000000000 S
