Bi3 Te4 Cl5 O10
1.0
   2.0545930000000001    7.7695980000000002    0.0000000000000000
  -2.0545930000000001    7.7695980000000002    0.0000000000000000
   0.0000000000000000    1.8813430000000000   13.4594000000000005
Bi Te Cl O
3 4 5 10
direct
   0.0000000000000000    0.0000000000000000    0.0000000000000000 Bi
   0.7839929999999991    0.7839929999999991    0.8039950000000000 Bi
   0.2160069999999990    0.2160069999999990    0.1960049999999990 Bi
   0.1620970000000000    0.1620970000000000    0.4949179999999990 Te
   0.8379030000000000    0.8379030000000000    0.5050820000000000 Te
   0.4728290000000000    0.4728290000000000    0.7703639999999990 Te
   0.5271709999999999    0.5271709999999999    0.2296359999999990 Te
   0.1500230000000000    0.1500230000000000    0.7273360000000000 Cl
   0.8499770000000000    0.8499770000000000    0.2726639999999990 Cl
   0.5000000000000000    0.5000000000000000    0.5000000000000000 Cl
   0.1748060000000000    0.1748060000000000    0.9755659999999990 Cl
   0.8251940000000000    0.8251940000000000    0.0244339999999990 Cl
   0.2923650000000000    0.2923650000000000    0.5005870000000000 O
   0.7076350000000000    0.7076350000000000    0.4994130000000000 O
   0.1668400000000000    0.1668400000000000    0.3580379999999990 O
   0.8331600000000001    0.8331600000000001    0.6419619999999990 O
   0.3465620000000000    0.3465620000000000    0.7964800000000001 O
   0.6534380000000000    0.6534380000000000    0.2035200000000000 O
   0.5042260000000000    0.5042260000000000    0.9007440000000000 O
   0.4957740000000000    0.4957740000000000    0.0992560000000000 O
   0.0613849999999990    0.0613849999999990    0.2013790000000000 O
   0.9386150000000000    0.9386150000000000    0.7986209999999990 O
