Tl12 As4 S16
1.0
   9.0620002900000003    0.0000000000000000    0.0000000000000000
   0.0000000000000000    9.2277893399999993    0.0000000000000000
   0.0000000000000000    0.0000000000000000   10.9577196299999997
Tl As S
12 4 16
direct
   0.9304555999999991    0.1950739100000000    0.4484253500000000 Tl
   0.4304556000000000    0.3049260900000000    0.0515746500000000 Tl
   0.5695444000000000    0.6950739100000000    0.5515746500000001 Tl
   0.0695443999999990    0.8049260900000000    0.9484253500000001 Tl
   0.0695443999999990    0.8049260900000000    0.5515746500000001 Tl
   0.5695444000000000    0.6950739100000000    0.9484253500000001 Tl
   0.4304556000000000    0.3049260900000000    0.4484253500000000 Tl
   0.9304555999999991    0.1950739100000000    0.0515746500000000 Tl
   0.3957824200000000    0.1067112300000000    0.7500000000000000 Tl
   0.8957824200000000    0.3932887700000000    0.7500000000000000 Tl
   0.1042175800000000    0.6067112300000000    0.2500000000000000 Tl
   0.6042175800000000    0.8932887700000001    0.2500000000000000 Tl
   0.2813353900000000    0.5268759300000000    0.7500000000000000 As
   0.2186646100000000    0.0268759300000000    0.2500000000000000 As
   0.7813353900000000    0.9731240700000000    0.7500000000000000 As
   0.7186646100000000    0.4731240700000000    0.2500000000000000 As
   0.9996110900000000    0.9321829800000000    0.2500000000000000 S
   0.5003889100000000    0.4321829800000000    0.7500000000000000 S
   0.4996110900000000    0.5678170200000000    0.2500000000000000 S
   0.0003889100000000    0.0678170200000000    0.7500000000000000 S
   0.8422843100000000    0.5336651900000000    0.4117776900000000 S
   0.3422843100000000    0.9663348100000000    0.0882223100000000 S
   0.6577156900000000    0.0336651900000000    0.5882223100000000 S
   0.1577156900000000    0.4663348100000000    0.9117776900000000 S
   0.1577156900000000    0.4663348100000000    0.5882223100000000 S
   0.6577156900000000    0.0336651900000000    0.9117776900000000 S
   0.3422843100000000    0.9663348100000000    0.4117776900000000 S
   0.8422843100000000    0.5336651900000000    0.0882223100000000 S
   0.6912905600000000    0.2369994100000000    0.2500000000000000 S
   0.1912905600000000    0.2630005900000000    0.2500000000000000 S
   0.8087094400000000    0.7369994100000000    0.7500000000000000 S
   0.3087094400000000    0.7630005900000000    0.7500000000000000 S
