K4 Sm8 Sb12 Se32
1.0
   4.1396100000000002    0.0000000000000000    0.0000000000000000
   0.0000000000000000   17.1350879999999997    0.0000000000000000
   0.0000000000000000    0.0000000000000000   22.3186590000000002
K Sm Sb Se
4 8 12 32
direct
   0.7500000000000000    0.2977360000000000    0.2440700000000000 K
   0.2500000000000000    0.7022640000000000    0.7559300000000001 K
   0.7500000000000000    0.7977360000000000    0.2559300000000000 K
   0.2500000000000000    0.2022640000000000    0.7440700000000000 K
   0.7500000000000000    0.9632849999999999    0.0897900000000000 Sm
   0.7500000000000000    0.4632850000000000    0.4102100000000000 Sm
   0.2500000000000000    0.2911559999999990    0.5445449999999999 Sm
   0.2500000000000000    0.5367149999999991    0.5897900000000000 Sm
   0.2500000000000000    0.7911560000000000    0.9554549999999991 Sm
   0.7500000000000000    0.7088439999999990    0.4554550000000000 Sm
   0.7500000000000000    0.2088440000000000    0.0445450000000000 Sm
   0.2500000000000000    0.0367150000000000    0.9102100000000001 Sm
   0.2500000000000000    0.4228270000000000    0.0868910000000000 Sb
   0.2500000000000000    0.0358770000000000    0.2421829999999990 Sb
   0.2500000000000000    0.3553510000000000    0.9005259999999990 Sb
   0.7500000000000000    0.6446489999999990    0.0994739999999990 Sb
   0.2500000000000000    0.8553510000000000    0.5994740000000000 Sb
   0.2500000000000000    0.5358769999999990    0.2578169999999990 Sb
   0.7500000000000000    0.4641229999999990    0.7421829999999990 Sb
   0.7500000000000000    0.5771729999999990    0.9131089999999999 Sb
   0.7500000000000000    0.1446490000000000    0.4005260000000000 Sb
   0.7500000000000000    0.0771729999999990    0.5868909999999991 Sb
   0.7500000000000000    0.9641230000000000    0.7578170000000000 Sb
   0.2500000000000000    0.9228270000000000    0.4131090000000000 Sb
   0.2500000000000000    0.8969260000000000    0.8240670000000000 Se
   0.2500000000000000    0.2116500000000000    0.9473309999999990 Se
   0.2500000000000000    0.6180850000000000    0.9974740000000000 Se
   0.2500000000000000    0.6789760000000000    0.1763090000000000 Se
   0.2500000000000000    0.1180850000000000    0.5025260000000000 Se
   0.7500000000000000    0.2883500000000001    0.4473310000000000 Se
   0.2500000000000000    0.5281400000000001    0.8296760000000000 Se
   0.7500000000000000    0.2221979999999990    0.6256950000000000 Se
   0.7500000000000000    0.8819150000000000    0.4974739999999990 Se
   0.7500000000000000    0.3210240000000000    0.8236910000000000 Se
   0.7500000000000000    0.6030740000000000    0.3240670000000000 Se
   0.7500000000000000    0.9256380000000000    0.9580630000000000 Se
   0.2500000000000000    0.4066530000000000    0.3306860000000000 Se
   0.7500000000000000    0.8210240000000000    0.6763089999999990 Se
   0.2500000000000000    0.0281400000000000    0.6703239999999990 Se
   0.7500000000000000    0.1030740000000000    0.1759329999999990 Se
   0.2500000000000000    0.9066529999999990    0.1693140000000000 Se
   0.2500000000000000    0.7778020000000000    0.3743050000000000 Se
   0.7500000000000000    0.9718600000000001    0.3296759999999990 Se
   0.2500000000000000    0.0743620000000000    0.0419369999999990 Se
   0.7500000000000000    0.5933470000000000    0.6693140000000000 Se
   0.2500000000000000    0.7116500000000000    0.5526690000000000 Se
   0.2500000000000000    0.1789760000000000    0.3236910000000000 Se
   0.2500000000000000    0.3969260000000000    0.6759330000000000 Se
   0.7500000000000000    0.7221980000000000    0.8743050000000000 Se
   0.7500000000000000    0.3819150000000000    0.0025260000000000 Se
   0.7500000000000000    0.0933470000000000    0.8306859999999990 Se
   0.7500000000000000    0.4718600000000001    0.1703240000000000 Se
   0.2500000000000000    0.2778020000000000    0.1256950000000000 Se
   0.2500000000000000    0.5743619999999990    0.4580630000000000 Se
   0.7500000000000000    0.4256379999999990    0.5419370000000000 Se
   0.7500000000000000    0.7883500000000001    0.0526690000000000 Se
