Ba6 Bi12 Pb2 Se26
1.0
   4.3340820000000004    0.0000000000000000    0.0000000000000000
   0.0000000000000000   17.5945140000000002    0.0000000000000000
   0.0000000000000000    0.2108320000000000   18.9398499999999999
Ba Bi Pb Se
6 12 2 26
direct
   0.2500000000000000    0.2522310000000000    0.7338120000000000 Ba
   0.7500000000000000    0.2667110000000000    0.1759220000000000 Ba
   0.7500000000000000    0.7477690000000000    0.2661880000000000 Ba
   0.2500000000000000    0.5175569999999990    0.6558189999999990 Ba
   0.7500000000000000    0.4824429999999990    0.3441809999999990 Ba
   0.2500000000000000    0.7332890000000000    0.8240780000000000 Ba
   0.7500000000000000    0.0812060000000000    0.5772980000000000 Bi
   0.2500000000000000    0.9187940000000000    0.4227019999999990 Bi
   0.2500000000000000    0.6731640000000000    0.4750330000000000 Bi
   0.2500000000000000    0.8969370000000000    0.0228880000000000 Bi
   0.2500000000000000    0.4900540000000000    0.1180679999999990 Bi
   0.7500000000000000    0.1030630000000000    0.9771120000000000 Bi
   0.2500000000000000    0.1717140000000000    0.3816879999999990 Bi
   0.7500000000000000    0.5099460000000000    0.8819319999999991 Bi
   0.7500000000000000    0.6879759999999990    0.0425790000000000 Bi
   0.7500000000000000    0.8282860000000000    0.6183120000000000 Bi
   0.7500000000000000    0.3268359999999990    0.5249670000000000 Bi
   0.2500000000000000    0.3120239999999990    0.9574210000000000 Bi
   0.7500000000000000    0.0132450000000000    0.2485740000000000 Pb
   0.2500000000000000    0.9867549999999990    0.7514259999999990 Pb
   0.2500000000000000    0.4263260000000000    0.4877740000000000 Se
   0.2500000000000000    0.1954680000000000    0.5546840000000000 Se
   0.7500000000000000    0.8045319999999990    0.4453160000000000 Se
   0.7500000000000000    0.2758960000000000    0.3632700000000000 Se
   0.7500000000000000    0.3745330000000000    0.6642479999999999 Se
   0.2500000000000000    0.8919539999999990    0.2788830000000000 Se
   0.2500000000000000    0.1891310000000000    0.0556790000000000 Se
   0.2500000000000000    0.1376840000000000    0.2397780000000000 Se
   0.2500000000000000    0.6041860000000000    0.9654720000000000 Se
   0.2500000000000000    0.9608540000000000    0.5877979999999990 Se
   0.7500000000000000    0.5736740000000000    0.5122260000000000 Se
   0.2500000000000000    0.3948330000000000    0.2338650000000000 Se
   0.7500000000000000    0.1080459999999990    0.7211170000000000 Se
   0.2500000000000000    0.4215330000000000    0.8268860000000000 Se
   0.2500000000000000    0.7241040000000000    0.6367300000000000 Se
   0.7500000000000000    0.8108690000000000    0.9443210000000000 Se
   0.7500000000000000    0.5784670000000000    0.1731140000000000 Se
   0.7500000000000000    0.2353539999999990    0.8773050000000000 Se
   0.7500000000000000    0.8623160000000000    0.7602220000000000 Se
   0.7500000000000000    0.6051670000000000    0.7661350000000000 Se
   0.2500000000000000    0.6254670000000000    0.3357520000000000 Se
   0.7500000000000000    0.9817480000000000    0.0892530000000000 Se
   0.7500000000000000    0.3958140000000000    0.0345279999999990 Se
   0.2500000000000000    0.0182520000000000    0.9107470000000000 Se
   0.2500000000000000    0.7646459999999990    0.1226950000000000 Se
   0.7500000000000000    0.0391460000000000    0.4122019999999990 Se
