As20 Pb12 S40
1.0
   8.7503689999999992    0.0000000000000000    0.0000000000000000
   0.0000000000000000    8.6077619999999992    0.0000000000000000
   0.0000000000000000    0.5108610000000000   25.5856379999999994
As Pb S
20 12 40
direct
   0.1530910000000000    0.5078810000000000    0.9022610000000000 As
   0.1437689999999990    0.0641930000000000    0.9031659999999990 As
   0.4424840000000000    0.2848700000000000    0.8166979999999990 As
   0.8312630000000000    0.6162200000000001    0.8105040000000000 As
   0.8185770000000000    0.9968680000000000    0.8260879999999990 As
   0.6729060000000000    0.6335080000000000    0.6896359999999990 As
   0.6809510000000000    0.2600070000000000    0.6741090000000000 As
   0.0550300000000000    0.9617840000000000    0.6849740000000000 As
   0.3524640000000000    0.7467370000000000    0.5948660000000000 As
   0.3523290000000000    0.1854220000000000    0.5980679999999990 As
   0.8523290000000000    0.8145779999999990    0.4019319999999990 As
   0.8524640000000000    0.2532630000000000    0.4051340000000000 As
   0.5550300000000000    0.0382160000000000    0.3150260000000000 As
   0.1809510000000000    0.7399930000000000    0.3258910000000000 As
   0.1729060000000000    0.3664920000000000    0.3103640000000000 As
   0.3185770000000000    0.0031320000000000    0.1739119999999990 As
   0.3312630000000000    0.3837800000000000    0.1894960000000000 As
   0.9424840000000000    0.7151300000000000    0.1833020000000000 As
   0.6437689999999990    0.9358069999999991    0.0968339999999990 As
   0.6530910000000000    0.4921190000000000    0.0977389999999990 As
   0.7920149999999990    0.7604730000000000    0.9548610000000000 Pb
   0.7876980000000000    0.2636259999999990    0.9601700000000001 Pb
   0.4865910000000000    0.7356429999999990    0.8285619999999990 Pb
   0.0194430000000000    0.5145050000000000    0.6688280000000000 Pb
   0.7001609999999990    0.4852869999999990    0.5417310000000000 Pb
   0.7172529999999990    0.9919779999999990    0.5453840000000000 Pb
   0.2001609999999990    0.5147130000000000    0.4582690000000000 Pb
   0.2172530000000000    0.0080220000000000    0.4546159999999990 Pb
   0.5194430000000000    0.4854949999999990    0.3311719999999990 Pb
   0.9865910000000000    0.2643570000000000    0.1714379999999990 Pb
   0.2876980000000000    0.7363740000000000    0.0398300000000000 Pb
   0.2920149999999990    0.2395270000000000    0.0451390000000000 Pb
   0.0139160000000000    0.4970750000000000    0.9770709999999990 S
   0.0205589999999990    0.0260400000000000    0.9807159999999990 S
   0.3104590000000000    0.2776349999999990    0.9191400000000001 S
   0.3119940000000000    0.6972229999999990    0.9248900000000001 S
   0.6331329999999999    0.9916309999999990    0.8862190000000000 S
   0.6769240000000000    0.5254340000000000    0.8771780000000000 S
   0.9671750000000000    0.2124990000000000    0.8583179999999990 S
   0.9741270000000000    0.7999640000000000    0.8551800000000001 S
   0.3320180000000000    0.0771920000000000    0.7745759999999990 S
   0.3276949999999990    0.4735280000000000    0.7796989999999990 S
   0.1751770000000000    0.7733160000000000    0.7199840000000000 S
   0.1598020000000000    0.1672290000000000    0.7289970000000000 S
   0.5242550000000000    0.4548500000000000    0.6449830000000000 S
   0.5318870000000000    0.0384189999999990    0.6426609999999990 S
   0.8263539999999990    0.7274980000000000    0.6236480000000000 S
   0.8656130000000000    0.2564619999999990    0.6135800000000000 S
   0.1906360000000000    0.5591330000000000    0.5731670000000000 S
   0.1923820000000000    0.9715030000000000    0.5781480000000000 S
   0.4951859999999990    0.7553139999999990    0.5203050000000000 S
   0.4757840000000000    0.2275009999999990    0.5213670000000000 S
   0.9757840000000000    0.7724989999999990    0.4786330000000000 S
   0.9951859999999991    0.2446860000000000    0.4796950000000000 S
   0.6923819999999991    0.0284969999999990    0.4218520000000000 S
   0.6906359999999990    0.4408669999999990    0.4268329999999990 S
   0.3656129999999990    0.7435379999999990    0.3864200000000000 S
   0.3263540000000000    0.2725019999999990    0.3763519999999990 S
   0.0318870000000000    0.9615809999999990    0.3573389999999990 S
   0.0242550000000000    0.5451500000000000    0.3550169999999990 S
   0.6598020000000000    0.8327709999999990    0.2710030000000000 S
   0.6751769999999990    0.2266840000000000    0.2800160000000000 S
   0.8276950000000000    0.5264719999999991    0.2203010000000000 S
   0.8320179999999990    0.9228080000000000    0.2254239999999990 S
   0.4741269999999990    0.2000360000000000    0.1448200000000000 S
   0.4671749999999991    0.7875010000000000    0.1416820000000000 S
   0.1769240000000000    0.4745660000000000    0.1228220000000000 S
   0.1331330000000000    0.0083690000000000    0.1137810000000000 S
   0.8119940000000000    0.3027769999999990    0.0751100000000000 S
   0.8104589999999990    0.7223649999999990    0.0808600000000000 S
   0.5139159999999990    0.5029250000000000    0.0229289999999990 S
   0.5205590000000000    0.9739600000000000    0.0192840000000000 S
