K24 Bi24 P32 S128
1.0
  -0.0000000000000000    0.0000000000000000   13.7568323100000001
  21.0917567199999993    0.0000000000000000   -0.0000000000000000
   0.0000000000000000   21.0917567199999993    0.0000000000000000
K Bi P S
24 24 32 128
direct
   0.4230319300000000    0.7424036400000000    0.9724496400000000 K
   0.9230319300000001    0.7575963600000000    0.9724496400000000 K
   0.9230319300000001    0.7424036400000000    0.5275503600000000 K
   0.4230319300000000    0.7575963600000000    0.5275503600000000 K
   0.9230319300000001    0.9724496400000000    0.7424036400000000 K
   0.4230319300000000    0.5275503600000000    0.7424036400000000 K
   0.4230319300000000    0.9724496400000000    0.7575963600000000 K
   0.9230319300000001    0.5275503600000000    0.7575963600000000 K
   0.5769680700000001    0.2575963600000000    0.0275503600000000 K
   0.0769680700000000    0.2424036400000000    0.0275503600000000 K
   0.0769680700000000    0.2575963600000000    0.4724496400000000 K
   0.5769680700000001    0.2424036400000000    0.4724496400000000 K
   0.0769680700000000    0.0275503600000000    0.2575963600000000 K
   0.5769680700000001    0.4724496400000000    0.2575963600000000 K
   0.5769680700000001    0.0275503600000000    0.2424036400000000 K
   0.0769680700000000    0.4724496400000000    0.2424036400000000 K
   0.7500000000000000    0.2500000000000000    0.7500000000000000 K
   0.2500000000000000    0.2500000000000000    0.7500000000000000 K
   0.2500000000000000    0.7500000000000000    0.2500000000000000 K
   0.7500000000000000    0.7500000000000000    0.2500000000000000 K
   0.9694330000000000    0.7500000000000000    0.7500000000000000 K
   0.4694330000000000    0.7500000000000000    0.7500000000000000 K
   0.0305669999999990    0.2500000000000000    0.2500000000000000 K
   0.5305670000000000    0.2500000000000000    0.2500000000000000 K
   0.1387580800000000    0.6010508700000000    0.9939724000000000 Bi
   0.6387580800000000    0.8989491300000000    0.9939724000000000 Bi
   0.6387580800000000    0.6010508700000000    0.5060276000000000 Bi
   0.1387580800000000    0.8989491300000000    0.5060276000000000 Bi
   0.6387580800000000    0.9939724000000000    0.6010508700000000 Bi
   0.1387580800000000    0.5060276000000000    0.6010508700000000 Bi
   0.1387580800000000    0.9939724000000000    0.8989491300000000 Bi
   0.6387580800000000    0.5060276000000000    0.8989491300000000 Bi
   0.8612419200000000    0.3989491300000000    0.0060276000000000 Bi
   0.3612419200000000    0.1010508700000000    0.0060276000000000 Bi
   0.3612419200000000    0.3989491300000000    0.4939724000000000 Bi
   0.8612419200000000    0.1010508700000000    0.4939724000000000 Bi
   0.3612419200000000    0.0060276000000000    0.3989491300000000 Bi
   0.8612419200000000    0.4939724000000000    0.3989491300000000 Bi
   0.8612419200000000    0.0060276000000000    0.1010508700000000 Bi
   0.3612419200000000    0.4939724000000000    0.1010508700000000 Bi
   0.2500000000000000    0.3999649800000000    0.8999649800000000 Bi
   0.7500000000000000    0.1000350200000000    0.8999649800000000 Bi
   0.7500000000000000    0.3999649800000000    0.6000350200000000 Bi
   0.2500000000000000    0.1000350200000000    0.6000350200000000 Bi
   0.7500000000000000    0.8999649800000000    0.3999649800000000 Bi
   0.2500000000000000    0.6000350200000000    0.3999649800000000 Bi
   0.2500000000000000    0.8999649800000000    0.1000350200000000 Bi
   0.7500000000000000    0.6000350200000000    0.1000350200000000 Bi
   0.3705614000000000    0.5648352000000000    0.9216500900000000 P
   0.8705613999999990    0.9351647999999990    0.9216500900000000 P
   0.8705613999999990    0.5648352000000000    0.5783499100000000 P
   0.3705614000000000    0.9351647999999990    0.5783499100000000 P
   0.8705613999999990    0.9216500900000000    0.5648352000000000 P
   0.3705614000000000    0.5783499100000000    0.5648352000000000 P
   0.3705614000000000    0.9216500900000000    0.9351647999999990 P
   0.8705613999999990    0.5783499100000000    0.9351647999999990 P
   0.6294386000000000    0.4351647999999990    0.0783499100000000 P
   0.1294386000000000    0.0648352000000000    0.0783499100000000 P
   0.1294386000000000    0.4351647999999990    0.4216500900000000 P
   0.6294386000000000    0.0648352000000000    0.4216500900000000 P
   0.1294386000000000    0.0783499100000000    0.4351647999999990 P
   0.6294386000000000    0.4216500900000000    0.4351647999999990 P
   0.6294386000000000    0.0783499100000000    0.0648352000000000 P
   0.1294386000000000    0.4216500900000000    0.0648352000000000 P
   0.1682851700000000    0.7479669800000001    0.0629260000000000 P
   0.6682851700000000    0.7520330200000001    0.0629260000000000 P
   0.6682851700000000    0.7479669800000001    0.4370739999999990 P
   0.1682851700000000    0.7520330200000001    0.4370739999999990 P
   0.6682851700000000    0.0629260000000000    0.7479669800000001 P
   0.1682851700000000    0.4370739999999990    0.7479669800000001 P
   0.1682851700000000    0.0629260000000000    0.7520330200000001 P
   0.6682851700000000    0.4370739999999990    0.7520330200000001 P
   0.8317148300000000    0.2520330200000000    0.9370740000000000 P
   0.3317148300000000    0.2479669800000000    0.9370740000000000 P
   0.3317148300000000    0.2520330200000000    0.5629259999999990 P
   0.8317148300000000    0.2479669800000000    0.5629259999999990 P
   0.3317148300000000    0.9370740000000000    0.2520330200000000 P
   0.8317148300000000    0.5629259999999990    0.2520330200000000 P
   0.8317148300000000    0.9370740000000000    0.2479669800000000 P
   0.3317148300000000    0.5629259999999990    0.2479669800000000 P
   0.2390552700000000    0.5589532200000000    0.8771656500000000 S
   0.7390552700000000    0.9410467800000000    0.8771656500000000 S
   0.7390552700000000    0.5589532200000000    0.6228343500000000 S
   0.2390552700000000    0.9410467800000000    0.6228343500000000 S
   0.7390552700000000    0.8771656500000000    0.5589532200000000 S
   0.2390552700000000    0.6228343500000000    0.5589532200000000 S
   0.2390552700000000    0.8771656500000000    0.9410467800000000 S
   0.7390552700000000    0.6228343500000000    0.9410467800000000 S
   0.7609447300000001    0.4410467800000000    0.1228343500000000 S
   0.2609447300000000    0.0589532200000000    0.1228343500000000 S
   0.2609447300000000    0.4410467800000000    0.3771656500000000 S
   0.7609447300000001    0.0589532200000000    0.3771656500000000 S
   0.2609447300000000    0.1228343500000000    0.4410467800000000 S
   0.7609447300000001    0.3771656500000000    0.4410467800000000 S
   0.7609447300000001    0.1228343500000000    0.0589532200000000 S
   0.2609447300000000    0.3771656500000000    0.0589532200000000 S
   0.3407309100000000    0.6035140100000000    0.0116074400000000 S
   0.8407309100000000    0.8964859900000001    0.0116074400000000 S
   0.8407309100000000    0.6035140100000000    0.4883925600000000 S
   0.3407309100000000    0.8964859900000001    0.4883925600000000 S
   0.8407309100000000    0.0116074400000000    0.6035140100000000 S
   0.3407309100000000    0.4883925600000000    0.6035140100000000 S
   0.3407309100000000    0.0116074400000000    0.8964859900000001 S
   0.8407309100000000    0.4883925600000000    0.8964859900000001 S
   0.6592690900000000    0.3964859900000000    0.9883925600000000 S
   0.1592690900000000    0.1035140100000000    0.9883925600000000 S
   0.1592690900000000    0.3964859900000000    0.5116074400000000 S
   0.6592690900000000    0.1035140100000000    0.5116074400000000 S
   0.1592690900000000    0.9883925600000000    0.3964859900000000 S
   0.6592690900000000    0.5116074400000000    0.3964859900000000 S
   0.6592690900000000    0.9883925600000000    0.1035140100000000 S
   0.1592690900000000    0.5116074400000000    0.1035140100000000 S
   0.9716340400000000    0.6253124100000000    0.8815989900000000 S
   0.4716340400000000    0.8746875900000001    0.8815989900000000 S
   0.4716340400000000    0.6253124100000000    0.6184010100000000 S
   0.9716340400000000    0.8746875900000001    0.6184010100000000 S
   0.4716340400000000    0.8815989900000000    0.6253124100000000 S
   0.9716340400000000    0.6184010100000000    0.6253124100000000 S
   0.9716340400000000    0.8815989900000000    0.8746875900000001 S
   0.4716340400000000    0.6184010100000000    0.8746875900000001 S
   0.0283659600000000    0.3746875900000000    0.1184010100000000 S
   0.5283659600000000    0.1253124100000000    0.1184010100000000 S
   0.5283659600000000    0.3746875900000000    0.3815989900000000 S
   0.0283659600000000    0.1253124100000000    0.3815989900000000 S
   0.5283659600000000    0.1184010100000000    0.3746875900000000 S
   0.0283659600000000    0.3815989900000000    0.3746875900000000 S
   0.0283659600000000    0.1184010100000000    0.1253124100000000 S
   0.5283659600000000    0.3815989900000000    0.1253124100000000 S
   0.4264168900000000    0.4754252600000000    0.9347824200000000 S
   0.9264168900000000    0.0245747400000000    0.9347824200000000 S
   0.9264168900000000    0.4754252600000000    0.5652175800000000 S
   0.4264168900000000    0.0245747400000000    0.5652175800000000 S
   0.9264168900000000    0.9347824200000000    0.4754252600000000 S
   0.4264168900000000    0.5652175800000000    0.4754252600000000 S
   0.4264168900000000    0.9347824200000000    0.0245747400000000 S
   0.9264168900000000    0.5652175800000000    0.0245747400000000 S
   0.5735831100000001    0.5245747400000000    0.0652175800000000 S
   0.0735831100000000    0.9754252600000001    0.0652175800000000 S
   0.0735831100000000    0.5245747400000000    0.4347824200000000 S
   0.5735831100000001    0.9754252600000001    0.4347824200000000 S
   0.0735831100000000    0.0652175800000000    0.5245747400000000 S
   0.5735831100000001    0.4347824200000000    0.5245747400000000 S
   0.5735831100000001    0.0652175800000000    0.9754252600000001 S
   0.0735831100000000    0.4347824200000000    0.9754252600000001 S
   0.1652410200000000    0.7265928300000000    0.9657106800000000 S
   0.6652410200000000    0.7734071700000000    0.9657106800000000 S
   0.6652410200000000    0.7265928300000000    0.5342893200000000 S
   0.1652410200000000    0.7734071700000000    0.5342893200000000 S
   0.6652410200000000    0.9657106800000000    0.7265928300000000 S
   0.1652410200000000    0.5342893200000000    0.7265928300000000 S
   0.1652410200000000    0.9657106800000000    0.7734071700000000 S
   0.6652410200000000    0.5342893200000000    0.7734071700000000 S
   0.8347589800000000    0.2734071700000000    0.0342893200000000 S
   0.3347589800000000    0.2265928300000000    0.0342893200000000 S
   0.3347589800000000    0.2734071700000000    0.4657106800000000 S
   0.8347589800000000    0.2265928300000000    0.4657106800000000 S
   0.3347589800000000    0.0342893200000000    0.2734071700000000 S
   0.8347589800000000    0.4657106800000000    0.2734071700000000 S
   0.8347589800000000    0.0342893200000000    0.2265928300000000 S
   0.3347589800000000    0.4657106800000000    0.2265928300000000 S
   0.3053776100000000    0.4039700200000000    0.7739222900000000 S
   0.8053776100000000    0.0960299800000000    0.7739222900000000 S
   0.8053776100000000    0.4039700200000000    0.7260777100000000 S
   0.3053776100000000    0.0960299800000000    0.7260777100000000 S
   0.8053776100000000    0.7739222900000000    0.4039700200000000 S
   0.3053776100000000    0.7260777100000000    0.4039700200000000 S
   0.3053776100000000    0.7739222900000000    0.0960299800000000 S
   0.8053776100000000    0.7260777100000000    0.0960299800000000 S
   0.6946223900000000    0.5960299800000000    0.2260777100000000 S
   0.1946223900000000    0.9039700200000000    0.2260777100000000 S
   0.1946223900000000    0.5960299800000000    0.2739222900000000 S
   0.6946223900000000    0.9039700200000000    0.2739222900000000 S
   0.1946223900000000    0.2260777100000000    0.5960299800000000 S
   0.6946223900000000    0.2739222900000000    0.5960299800000000 S
   0.6946223900000000    0.2260777100000000    0.9039700200000000 S
   0.1946223900000000    0.2739222900000000    0.9039700200000000 S
   0.0803087500000000    0.4152831700000000    0.8220462400000000 S
   0.5803087500000000    0.0847168300000000    0.8220462400000000 S
   0.5803087500000000    0.4152831700000000    0.6779537600000000 S
   0.0803087500000000    0.0847168300000000    0.6779537600000000 S
   0.5803087500000000    0.8220462400000000    0.4152831700000000 S
   0.0803087500000000    0.6779537600000000    0.4152831700000000 S
   0.0803087500000000    0.8220462400000000    0.0847168300000000 S
   0.5803087500000000    0.6779537600000000    0.0847168300000000 S
   0.9196912500000001    0.5847168300000000    0.1779537600000000 S
   0.4196912500000000    0.9152831700000000    0.1779537600000000 S
   0.4196912500000000    0.5847168300000000    0.3220462400000000 S
   0.9196912500000001    0.9152831700000000    0.3220462400000000 S
   0.4196912500000000    0.1779537600000000    0.5847168300000000 S
   0.9196912500000001    0.3220462400000000    0.5847168300000000 S
   0.9196912500000001    0.1779537600000000    0.9152831700000000 S
   0.4196912500000000    0.3220462400000000    0.9152831700000000 S
   0.1235110000000000    0.6665892100000000    0.1065198500000000 S
   0.6235109999999990    0.8334107900000001    0.1065198500000000 S
   0.6235109999999990    0.6665892100000000    0.3934801500000000 S
   0.1235110000000000    0.8334107900000001    0.3934801500000000 S
   0.6235109999999990    0.1065198500000000    0.6665892100000000 S
   0.1235110000000000    0.3934801500000000    0.6665892100000000 S
   0.1235110000000000    0.1065198500000000    0.8334107900000001 S
   0.6235109999999990    0.3934801500000000    0.8334107900000001 S
   0.8764890000000000    0.3334107900000000    0.8934801500000000 S
   0.3764889999999990    0.1665892100000000    0.8934801500000000 S
   0.3764889999999990    0.3334107900000000    0.6065198500000000 S
   0.8764890000000000    0.1665892100000000    0.6065198500000000 S
   0.3764889999999990    0.8934801500000000    0.3334107900000000 S
   0.8764890000000000    0.6065198500000000    0.3334107900000000 S
   0.8764890000000000    0.8934801500000000    0.1665892100000000 S
   0.3764889999999990    0.6065198500000000    0.1665892100000000 S
