Sb4 S6 O24
1.0
   8.0625870000000006   -4.6516770000000003    0.0000000000000000
   8.0625870000000006    4.6516770000000003    0.0000000000000000
   5.3788219999999987    0.0000000000000000    7.5968210000000003
Sb S O
4 6 24
direct
   0.8612909999999990    0.8612909999999990    0.8612909999999990 Sb
   0.6387090000000000    0.6387090000000000    0.6387090000000000 Sb
   0.1387090000000000    0.1387090000000000    0.1387090000000000 Sb
   0.3612910000000000    0.3612910000000000    0.3612910000000000 Sb
   0.2500000000000000    0.5452770000000000    0.9547230000000000 S
   0.4547230000000000    0.0452770000000000    0.7500000000000000 S
   0.0452770000000000    0.7500000000000000    0.4547230000000000 S
   0.9547230000000000    0.2500000000000000    0.5452770000000000 S
   0.5452770000000000    0.9547230000000000    0.2500000000000000 S
   0.7500000000000000    0.4547230000000000    0.0452770000000000 S
   0.3976019999999990    0.5595129999999990    0.7817300000000000 O
   0.2182700000000000    0.6023980000000000    0.4404869999999990 O
   0.4050990000000000    0.9921449999999991    0.1913290000000000 O
   0.5078549999999999    0.0949010000000000    0.3086710000000000 O
   0.1023979999999990    0.7182700000000001    0.9404870000000000 O
   0.2817300000000000    0.0595129999999990    0.8976020000000000 O
   0.4404869999999990    0.2182700000000000    0.6023980000000000 O
   0.6913290000000000    0.4921450000000000    0.9050990000000000 O
   0.0078550000000000    0.8086709999999990    0.5949010000000000 O
   0.8086709999999990    0.5949010000000000    0.0078550000000000 O
   0.9050990000000000    0.6913290000000000    0.4921450000000000 O
   0.0595129999999990    0.8976020000000000    0.2817300000000000 O
   0.9404870000000000    0.1023979999999990    0.7182700000000001 O
   0.1913290000000000    0.4050990000000000    0.9921449999999991 O
   0.0949010000000000    0.3086710000000000    0.5078549999999999 O
   0.3086710000000000    0.5078549999999999    0.0949010000000000 O
   0.9921449999999991    0.1913290000000000    0.4050990000000000 O
   0.5595129999999990    0.7817300000000000    0.3976019999999990 O
   0.7182700000000001    0.9404870000000000    0.1023979999999990 O
   0.8976020000000000    0.2817300000000000    0.0595129999999990 O
   0.5949010000000000    0.0078550000000000    0.8086709999999990 O
   0.4921450000000000    0.9050990000000000    0.6913290000000000 O
   0.7817300000000000    0.3976019999999990    0.5595129999999990 O
   0.6023980000000000    0.4404869999999990    0.2182700000000000 O
