Bi10 Te6 O36
1.0
   4.6274709999999999    8.0453139999999994    0.0000000000000000
  -4.6274709999999999    8.0453139999999994    0.0000000000000000
   0.0000000000000000    1.5604060000000000   11.6253849999999996
Bi Te O
10 6 36
direct
   0.4945429999999990    0.8302060000000000    0.9947500000000000 Bi
   0.2131549999999990    0.1161990000000000    0.5231310000000000 Bi
   0.3662979999999990    0.3658829999999990    0.2841750000000000 Bi
   0.7855360000000000    0.9613220000000000    0.7676740000000000 Bi
   0.6341169999999990    0.6337020000000000    0.7158249999999990 Bi
   0.9776149999999991    0.0223850000000000    0.0000000000000000 Bi
   0.3835420000000000    0.6164580000000000    0.5000000000000000 Bi
   0.0386780000000000    0.2144640000000000    0.2323259999999990 Bi
   0.8838009999999999    0.7868450000000000    0.4768690000000000 Bi
   0.1697940000000000    0.5054569999999990    0.0052500000000000 Bi
   0.8486290000000000    0.4873180000000000    0.9580800000000000 Te
   0.2022769999999990    0.7896409999999990    0.2432760000000000 Te
   0.2103590000000000    0.7977230000000000    0.7567240000000000 Te
   0.8604280000000000    0.4597310000000000    0.4481650000000000 Te
   0.5402690000000000    0.1395720000000000    0.5518350000000000 Te
   0.5126820000000000    0.1513710000000000    0.0419200000000000 Te
   0.0662360000000000    0.4345890000000000    0.8812240000000000 O
   0.3974760000000000    0.7846179999999990    0.8455640000000000 O
   0.6405750000000000    0.5414960000000000    0.5301480000000000 O
   0.1307890000000000    0.6863500000000000    0.3792129999999990 O
   0.2153820000000000    0.6025239999999999    0.1544360000000000 O
   0.3136500000000000    0.8692110000000000    0.6207870000000000 O
   0.8040389999999999    0.3748050000000000    0.3299960000000000 O
   0.0477540000000000    0.0179030000000000    0.7995760000000000 O
   0.3857939999999990    0.5810440000000000    0.7110059999999990 O
   0.4487219999999990    0.0849009999999990    0.4267110000000000 O
   0.6323219999999991    0.5748759999999991    0.0500120000000000 O
   0.9296920000000000    0.5539649999999990    0.0834780000000000 O
   0.0444590000000000    0.8031450000000000    0.6643390000000000 O
   0.7307600000000001    0.7251980000000000    0.8764879999999990 O
   0.4251240000000000    0.3676780000000000    0.9499879999999991 O
   0.5826400000000000    0.2143680000000000    0.1649560000000000 O
   0.7408960000000000    0.0617270000000000    0.4456239999999990 O
   0.2748020000000000    0.2692400000000000    0.1235120000000000 O
   0.4585039999999990    0.3594250000000000    0.4698520000000000 O
   0.9382729999999990    0.2591040000000000    0.5543760000000000 O
   0.8036630000000000    0.6735610000000000    0.3652330000000000 O
   0.6624460000000000    0.8998659999999991    0.6279800000000001 O
   0.9820970000000000    0.9522459999999990    0.2004240000000000 O
   0.7856320000000000    0.4173600000000000    0.8350440000000000 O
   0.7269540000000000    0.0806149999999990    0.9560670000000000 O
   0.1144680000000000    0.7338439999999991    0.9046210000000000 O
   0.4460349999999990    0.0703080000000000    0.9165219999999999 O
   0.6251949999999999    0.1959610000000000    0.6700039999999990 O
   0.1968550000000000    0.9555410000000000    0.3356610000000000 O
   0.1001340000000000    0.3375539999999990    0.3720200000000000 O
   0.3264390000000000    0.1963369999999990    0.6347670000000000 O
   0.2661560000000000    0.8855320000000000    0.0953789999999990 O
   0.4189560000000000    0.6142059999999990    0.2889940000000000 O
   0.9150990000000000    0.5512779999999990    0.5732889999999990 O
   0.9193850000000000    0.2730460000000000    0.0439330000000000 O
   0.5654110000000000    0.9337639999999990    0.1187759999999990 O
