Rb12 As4 Se16
1.0
   9.7415494299999992    0.0000000000000000    0.0000000000000000
  -0.0000000000000000   10.1316600500000007    0.0000000000000000
   0.0000000000000000    0.0000000000000000   11.4570904700000007
Rb As Se
12 4 16
direct
   0.6490668400000000    0.9158283700000001    0.2500000000000000 Rb
   0.1490668400000000    0.5841716300000001    0.2500000000000000 Rb
   0.8509331600000000    0.4158283700000000    0.7500000000000000 Rb
   0.3509331600000000    0.0841716300000000    0.7500000000000000 Rb
   0.0574991300000000    0.8052332100000000    0.9567123999999990 Rb
   0.5574991300000001    0.6947667900000000    0.5432876000000000 Rb
   0.4425008700000000    0.3052332100000000    0.0432875999999990 Rb
   0.9425008700000000    0.1947667900000000    0.4567123999999990 Rb
   0.9425008700000000    0.1947667900000000    0.0432875999999990 Rb
   0.4425008700000000    0.3052332100000000    0.4567123999999990 Rb
   0.5574991300000001    0.6947667900000000    0.9567123999999990 Rb
   0.0574991300000000    0.8052332100000000    0.5432876000000000 Rb
   0.7720366900000000    0.9758312400000000    0.7500000000000000 As
   0.2279633100000000    0.0241687600000000    0.2500000000000000 As
   0.7279633100000000    0.4758312400000000    0.2500000000000000 As
   0.2720366900000000    0.5241687600000000    0.7500000000000000 As
   0.3490928000000000    0.9697856200000000    0.0815262600000000 Se
   0.8490928000000000    0.5302143800000000    0.4184737400000000 Se
   0.1509072000000000    0.4697856200000000    0.9184737400000000 Se
   0.6509072000000000    0.0302143800000000    0.5815262600000000 Se
   0.0161351200000000    0.9143329700000000    0.2500000000000000 Se
   0.5161351200000001    0.5856670300000000    0.2500000000000000 Se
   0.4838648800000000    0.4143329700000000    0.7500000000000000 Se
   0.9838648800000001    0.0856670300000000    0.7500000000000000 Se
   0.6509072000000000    0.0302143800000000    0.9184737400000000 Se
   0.3490928000000000    0.9697856200000000    0.4184737400000000 Se
   0.8490928000000000    0.5302143800000000    0.0815262600000000 Se
   0.1509072000000000    0.4697856200000000    0.5815262600000000 Se
   0.8125193500000000    0.7499850400000000    0.7500000000000000 Se
   0.3125193500000000    0.7500149600000000    0.7500000000000000 Se
   0.6874806500000000    0.2499850400000000    0.2500000000000000 Se
   0.1874806500000000    0.2500149600000000    0.2500000000000000 Se
