Na12 Sb4 H72 S16 O36
1.0
  12.0148810000000008    0.0000000000000000    0.0000000000000000
   0.0000000000000000   12.0148810000000008    0.0000000000000000
   0.0000000000000000    0.0000000000000000   12.0148810000000008
Na Sb H S O
12 4 72 16 36
direct
   0.2919910000000000    0.2919910000000000    0.2919910000000000 Na
   0.9503490000000000    0.0496510000000000    0.5496510000000000 Na
   0.5496510000000000    0.9503490000000000    0.0496510000000000 Na
   0.6051470000000000    0.6051470000000000    0.6051470000000000 Na
   0.8948530000000000    0.3948530000000000    0.1051469999999990 Na
   0.1051469999999990    0.8948530000000000    0.3948530000000000 Na
   0.3948530000000000    0.1051469999999990    0.8948530000000000 Na
   0.7080090000000000    0.7919910000000000    0.2080090000000000 Na
   0.7919910000000000    0.2080090000000000    0.7080090000000000 Na
   0.2080090000000000    0.7080090000000000    0.7919910000000000 Na
   0.4503490000000000    0.4503490000000000    0.4503490000000000 Na
   0.0496510000000000    0.5496510000000000    0.9503490000000000 Na
   0.0376870000000000    0.0376870000000000    0.0376870000000000 Sb
   0.4623130000000000    0.9623130000000000    0.5376870000000000 Sb
   0.5376870000000000    0.4623130000000000    0.9623130000000000 Sb
   0.9623130000000000    0.5376870000000000    0.4623130000000000 Sb
   0.4422760000000000    0.6956000000000000    0.8736630000000000 H
   0.9422760000000000    0.8044000000000000    0.1263370000000000 H
   0.5577240000000000    0.1956000000000000    0.6263369999999990 H
   0.8044000000000000    0.1263370000000000    0.9422760000000000 H
   0.6263369999999990    0.5577240000000000    0.1956000000000000 H
   0.1263370000000000    0.9422760000000000    0.8044000000000000 H
   0.6956000000000000    0.8736630000000000    0.4422760000000000 H
   0.8736630000000000    0.4422760000000000    0.6956000000000000 H
   0.1956000000000000    0.6263369999999990    0.5577240000000000 H
   0.3044000000000000    0.3736629999999990    0.0577240000000000 H
   0.3736629999999990    0.0577240000000000    0.3044000000000000 H
   0.0577240000000000    0.3044000000000000    0.3736629999999990 H
   0.4533700000000001    0.7791359999999991    0.7739819999999999 H
   0.9533700000000001    0.7208639999999999    0.2260180000000000 H
   0.5466300000000001    0.2791360000000000    0.7260179999999991 H
   0.7208639999999999    0.2260180000000000    0.9533700000000001 H
   0.7260179999999991    0.5466300000000001    0.2791360000000000 H
   0.2260180000000000    0.9533700000000001    0.7208639999999999 H
   0.7791359999999991    0.7739819999999999    0.4533700000000001 H
   0.7739819999999999    0.4533700000000001    0.7791359999999991 H
   0.2791360000000000    0.7260179999999991    0.5466300000000001 H
   0.2208639999999990    0.2739820000000000    0.0466300000000000 H
   0.2739820000000000    0.0466300000000000    0.2208639999999990 H
   0.0466300000000000    0.2208639999999990    0.2739820000000000 H
   0.3270810000000000    0.2398040000000000    0.5417149999999999 H
   0.8270810000000000    0.2601960000000000    0.4582850000000000 H
   0.6729189999999990    0.7398040000000000    0.9582849999999991 H
   0.2601960000000000    0.4582850000000000    0.8270810000000000 H
   0.9582849999999991    0.6729189999999990    0.7398040000000000 H
   0.4582850000000000    0.8270810000000000    0.2601960000000000 H
   0.2398040000000000    0.5417149999999999    0.3270810000000000 H
   0.5417149999999999    0.3270810000000000    0.2398040000000000 H
   0.7398040000000000    0.9582849999999991    0.6729189999999990 H
   0.7601960000000000    0.0417149999999990    0.1729190000000000 H
   0.2001089999999990    0.0824640000000000    0.5208000000000000 H
   0.0417149999999990    0.1729190000000000    0.7601960000000000 H
   0.2446090000000000    0.3401139999999990    0.5221870000000000 H
   0.7446090000000000    0.1598860000000000    0.4778130000000000 H
   0.7553909999999990    0.8401139999999990    0.9778129999999990 H
   0.1598860000000000    0.4778130000000000    0.7446090000000000 H
   0.9778129999999990    0.7553909999999990    0.8401139999999990 H
   0.4778130000000000    0.7446090000000000    0.1598860000000000 H
   0.3401139999999990    0.5221870000000000    0.2446090000000000 H
   0.5221870000000000    0.2446090000000000    0.3401139999999990 H
   0.8401139999999990    0.9778129999999990    0.7553909999999990 H
   0.6598860000000000    0.0221870000000000    0.2553910000000000 H
   0.0221870000000000    0.2553910000000000    0.6598860000000000 H
   0.2553910000000000    0.6598860000000000    0.0221870000000000 H
   0.5770390000000000    0.6315560000000000    0.3597130000000000 H
   0.0770390000000000    0.8684440000000000    0.6402869999999991 H
   0.4229610000000000    0.1315560000000000    0.1402870000000000 H
   0.8684440000000000    0.6402869999999991    0.0770390000000000 H
   0.1402870000000000    0.4229610000000000    0.1315560000000000 H
   0.6402869999999991    0.0770390000000000    0.8684440000000000 H
   0.6315560000000000    0.3597130000000000    0.5770390000000000 H
   0.3597130000000000    0.5770390000000000    0.6315560000000000 H
   0.1315560000000000    0.1402870000000000    0.4229610000000000 H
   0.3684440000000000    0.8597129999999999    0.9229609999999990 H
   0.8597129999999999    0.9229609999999990    0.3684440000000000 H
   0.9229609999999990    0.3684440000000000    0.8597129999999999 H
   0.4792000000000000    0.7001090000000000    0.4175359999999990 H
   0.9792000000000001    0.7998910000000000    0.5824640000000000 H
   0.5208000000000000    0.2001089999999990    0.0824640000000000 H
   0.7998910000000000    0.5824640000000000    0.9792000000000001 H
   0.0824640000000000    0.5208000000000000    0.2001089999999990 H
   0.5824640000000000    0.9792000000000001    0.7998910000000000 H
   0.7001090000000000    0.4175359999999990    0.4792000000000000 H
   0.4175359999999990    0.4792000000000000    0.7001090000000000 H
   0.0208000000000000    0.2998909999999990    0.9175359999999990 H
   0.9175359999999990    0.0208000000000000    0.2998909999999990 H
   0.2998909999999990    0.9175359999999990    0.0208000000000000 H
   0.1729190000000000    0.7601960000000000    0.0417149999999990 H
   0.0761210000000000    0.4238790000000000    0.5761210000000000 S
   0.1461450000000000    0.1539039999999990    0.9212100000000001 S
   0.5761210000000000    0.0761210000000000    0.4238790000000000 S
   0.9238790000000000    0.9238790000000000    0.9238790000000000 S
   0.9212100000000001    0.1461450000000000    0.1539039999999990 S
   0.1539039999999990    0.9212100000000001    0.1461450000000000 S
   0.3460959999999990    0.0787900000000000    0.6461450000000000 S
   0.4212100000000000    0.3538550000000000    0.8460960000000000 S
   0.8460960000000000    0.4212100000000000    0.3538550000000000 S
   0.5787900000000000    0.8538549999999990    0.6539039999999990 S
   0.0787900000000000    0.6461450000000000    0.3460959999999990 S
   0.6539039999999990    0.5787900000000000    0.8538549999999990 S
   0.6461450000000000    0.3460959999999990    0.0787900000000000 S
   0.8538549999999990    0.6539039999999990    0.5787900000000000 S
   0.4238790000000000    0.5761210000000000    0.0761210000000000 S
   0.3538550000000000    0.8460960000000000    0.4212100000000000 S
   0.4000510000000000    0.7503600000000000    0.8303729999999990 O
   0.9000509999999990    0.7496400000000001    0.1696270000000000 O
   0.5999490000000000    0.2503600000000000    0.6696270000000000 O
   0.7496400000000001    0.1696270000000000    0.9000509999999990 O
   0.6696270000000000    0.5999490000000000    0.2503600000000000 O
   0.1696270000000000    0.9000509999999990    0.7496400000000001 O
   0.7503600000000000    0.8303729999999990    0.4000510000000000 O
   0.8303729999999990    0.4000510000000000    0.7503600000000000 O
   0.2503600000000000    0.6696270000000000    0.5999490000000000 O
   0.2496400000000000    0.3303729999999990    0.0999490000000000 O
   0.3303729999999990    0.0999490000000000    0.2496400000000000 O
   0.0999490000000000    0.2496400000000000    0.3303729999999990 O
   0.3134130000000000    0.3053570000000000    0.4937820000000000 O
   0.8134129999999991    0.1946429999999990    0.5062179999999999 O
   0.6865869999999999    0.8053570000000000    0.0062180000000000 O
   0.1946429999999990    0.5062179999999999    0.8134129999999991 O
   0.0062180000000000    0.6865869999999999    0.8053570000000000 O
   0.5062179999999999    0.8134129999999991    0.1946429999999990 O
   0.3053570000000000    0.4937820000000000    0.3134130000000000 O
   0.4937820000000000    0.3134130000000000    0.3053570000000000 O
   0.8053570000000000    0.0062180000000000    0.6865869999999999 O
   0.6946430000000000    0.9937819999999991    0.1865870000000000 O
   0.9937819999999991    0.1865870000000000    0.6946430000000000 O
   0.1865870000000000    0.6946430000000000    0.9937819999999991 O
   0.5277240000000000    0.6343869999999990    0.4259500000000001 O
   0.0277240000000000    0.8656130000000000    0.5740500000000001 O
   0.4722760000000000    0.1343870000000000    0.0740500000000000 O
   0.8656130000000000    0.5740500000000001    0.0277240000000000 O
   0.0740500000000000    0.4722760000000000    0.1343870000000000 O
   0.5740500000000001    0.0277240000000000    0.8656130000000000 O
   0.6343869999999990    0.4259500000000001    0.5277240000000000 O
   0.4259500000000001    0.5277240000000000    0.6343869999999990 O
   0.1343870000000000    0.0740500000000000    0.4722760000000000 O
   0.3656129999999990    0.9259500000000001    0.9722759999999990 O
   0.9259500000000001    0.9722759999999990    0.3656129999999990 O
   0.9722759999999990    0.3656129999999990    0.9259500000000001 O
