Sb4 Te4 N36 F24
1.0
   8.8647939999999998    0.0000000000000000    0.0000000000000000
   0.0000000000000000    9.6003019999999992    0.0000000000000000
   0.0000000000000000    2.4117250000000001   13.8643429999999999
Sb Te N F
4 4 36 24
direct
   0.2465349999999990    0.1670309999999990    0.9220480000000000 Sb
   0.7465349999999999    0.8329690000000000    0.5779520000000000 Sb
   0.7534649999999991    0.8329690000000000    0.0779520000000000 Sb
   0.2534650000000000    0.1670309999999990    0.4220480000000000 Sb
   0.2302350000000000    0.8812740000000000    0.2090790000000000 Te
   0.7302350000000000    0.1187260000000000    0.2909210000000000 Te
   0.7697649999999990    0.1187260000000000    0.7909210000000000 Te
   0.2697650000000000    0.8812740000000000    0.7090790000000000 Te
   0.0631600000000000    0.8332729999999990    0.3088730000000000 N
   0.5631600000000000    0.1667270000000000    0.1911270000000000 N
   0.9368400000000001    0.1667270000000000    0.6911269999999990 N
   0.4368400000000001    0.8332729999999990    0.8088730000000000 N
   0.0248630000000000    0.7077709999999990    0.3314189999999990 N
   0.5248630000000000    0.2922289999999990    0.1685809999999990 N
   0.9751369999999990    0.2922289999999990    0.6685810000000000 N
   0.4751370000000000    0.7077709999999990    0.8314189999999990 N
   0.9788929999999991    0.5965190000000000    0.3577050000000000 N
   0.4788929999999990    0.4034810000000000    0.1422950000000000 N
   0.0211070000000000    0.4034810000000000    0.6422949999999999 N
   0.5211070000000000    0.5965190000000000    0.8577049999999991 N
   0.4096630000000000    0.8399869999999990    0.3005220000000000 N
   0.9096630000000000    0.1600130000000000    0.1994780000000000 N
   0.5903370000000000    0.1600130000000000    0.6994779999999990 N
   0.0903370000000000    0.8399869999999990    0.8005220000000000 N
   0.4645400000000001    0.7193750000000000    0.3137500000000000 N
   0.9645400000000001    0.2806250000000000    0.1862500000000000 N
   0.5354600000000000    0.2806250000000000    0.6862500000000000 N
   0.0354600000000000    0.7193750000000000    0.8137500000000001 N
   0.5260239999999990    0.6133170000000000    0.3314269999999990 N
   0.0260240000000000    0.3866830000000000    0.1685730000000000 N
   0.4739759999999990    0.3866830000000000    0.6685730000000000 N
   0.9739760000000000    0.6133170000000000    0.8314269999999990 N
   0.2366940000000000    0.6821380000000000    0.1788160000000000 N
   0.7366940000000000    0.3178620000000000    0.3211839999999990 N
   0.7633059999999990    0.3178620000000000    0.8211839999999990 N
   0.2633060000000000    0.6821380000000000    0.6788160000000000 N
   0.2289949999999990    0.6652739999999990    0.0936729999999990 N
   0.7289949999999999    0.3347259999999990    0.4063270000000000 N
   0.7710049999999991    0.3347259999999990    0.9063270000000000 N
   0.2710050000000000    0.6652739999999990    0.5936730000000000 N
   0.2231100000000000    0.6349830000000000    0.0187060000000000 N
   0.7231100000000000    0.3650170000000000    0.4812940000000000 N
   0.7768900000000001    0.3650170000000000    0.9812940000000000 N
   0.2768900000000000    0.6349830000000000    0.5187060000000000 N
   0.2198900000000000    0.3565080000000000    0.8580960000000000 F
   0.7198900000000000    0.6434920000000000    0.6419039999999990 F
   0.7801100000000001    0.6434920000000000    0.1419040000000000 F
   0.2801100000000000    0.3565080000000000    0.3580959999999990 F
   0.2691650000000000    0.9744689999999990    0.9857440000000000 F
   0.7691650000000000    0.0255309999999990    0.5142559999999990 F
   0.7308350000000000    0.0255309999999990    0.0142560000000000 F
   0.2308349999999990    0.9744689999999990    0.4857439999999991 F
   0.2633090000000000    0.1025779999999990    0.7973800000000001 F
   0.7633090000000000    0.8974219999999991    0.7026200000000000 F
   0.7366910000000000    0.8974219999999991    0.2026200000000000 F
   0.2366909999999990    0.1025779999999990    0.2973800000000000 F
   0.0308619999999990    0.1390350000000000    0.9145890000000000 F
   0.5308619999999999    0.8609650000000000    0.5854110000000000 F
   0.9691379999999991    0.8609650000000000    0.0854110000000000 F
   0.4691380000000000    0.1390350000000000    0.4145890000000000 F
   0.4610360000000000    0.1920619999999990    0.9197320000000000 F
   0.9610360000000000    0.8079379999999990    0.5802680000000000 F
   0.5389640000000000    0.8079379999999990    0.0802679999999990 F
   0.0389640000000000    0.1920619999999990    0.4197320000000000 F
   0.2291700000000000    0.2195430000000000    0.0466950000000000 F
   0.7291700000000001    0.7804570000000000    0.4533049999999990 F
   0.7708300000000000    0.7804570000000000    0.9533050000000000 F
   0.2708300000000000    0.2195430000000000    0.5466949999999990 F
