K6 Cu4 Bi10 S20
1.0
   4.0348232099999999    0.0000000000000000    0.0000000000000000
   0.0000000000000000   14.2829054299999996   -0.0000000000000000
   0.0000000000000000    0.0000000000000000   17.7882696699999983
K Cu Bi S
6 4 10 20
direct
   0.5000000000000000    0.9749931500000000    0.2466367500000000 K
   0.5000000000000000    0.0250068500000000    0.7533632500000000 K
  -0.0000000000000000    0.4749931500000000    0.2533632500000000 K
  -0.0000000000000000    0.5250068500000000    0.7466367500000000 K
   0.5000000000000000    0.5000000000000000    0.0000000000000000 K
  -0.0000000000000000    0.0000000000000000    0.5000000000000000 K
   0.0000000000000000    0.2175333300000000    0.2470795999999990 Cu
   0.5000000000000000    0.7175333300000000    0.2529204000000000 Cu
   0.5000000000000000    0.2824666700000000    0.7470796000000000 Cu
  -0.0000000000000000    0.7824666700000000    0.7529203999999990 Cu
  -0.0000000000000000    0.7200908300000001    0.4029882400000000 Bi
   0.5000000000000000    0.2310068200000000    0.3961428300000000 Bi
  -0.0000000000000000    0.2799091700000000    0.5970117600000000 Bi
  -0.0000000000000000    0.2689931800000000    0.8961428300000001 Bi
   0.5000000000000000    0.7689931800000001    0.6038571700000001 Bi
   0.5000000000000000    0.5000000000000000    0.5000000000000000 Bi
  -0.0000000000000000    0.7310068200000001    0.1038571700000000 Bi
   0.5000000000000000    0.2200908300000000    0.0970117600000000 Bi
   0.5000000000000000    0.7799091700000000    0.9029882400000000 Bi
  -0.0000000000000000    0.0000000000000000    0.0000000000000000 Bi
  -0.0000000000000000    0.7997180900000000    0.2660648800000000 S
   0.5000000000000000    0.1234021600000000    0.9464097500000000 S
   0.5000000000000000    0.2997180900000000    0.2339351200000000 S
   0.5000000000000000    0.8765978400000001    0.0535902500000000 S
  -0.0000000000000000    0.6618779300000001    0.9635864400000000 S
   0.5000000000000000    0.4057223900000000    0.6402139600000000 S
  -0.0000000000000000    0.2002819100000000    0.7339351200000001 S
  -0.0000000000000000    0.3381220700000000    0.0364135600000000 S
  -0.0000000000000000    0.9057223900000000    0.8597860400000000 S
   0.5000000000000000    0.1618779300000000    0.5364135600000000 S
  -0.0000000000000000    0.1174937600000000    0.3508290600000000 S
  -0.0000000000000000    0.8825062400000000    0.6491709400000000 S
  -0.0000000000000000    0.3765978400000000    0.4464097500000000 S
   0.5000000000000000    0.8381220700000001    0.4635864400000000 S
  -0.0000000000000000    0.0942776100000000    0.1402139600000000 S
   0.5000000000000000    0.6174937600000000    0.1491709400000000 S
  -0.0000000000000000    0.6234021600000000    0.5535902500000001 S
   0.5000000000000000    0.7002819100000001    0.7660648800000001 S
   0.5000000000000000    0.3825062400000000    0.8508290600000000 S
   0.5000000000000000    0.5942776100000000    0.3597860400000000 S
