K12 Bi4 Se12
1.0
   9.8238642200000008   -0.0000000000000000    0.0000000000000000
  -0.0000000000000000    9.8238642200000008   -0.0000000000000000
  -0.0000000000000000   -0.0000000000000000    9.8238642200000008
K Bi Se
12 4 12
direct
   0.3219728000000000    0.3219728000000000    0.3219728000000000 K
   0.1780272000000000    0.6780271999999991    0.8219727999999999 K
   0.8219727999999999    0.1780272000000000    0.6780271999999991 K
   0.6780271999999991    0.8219727999999999    0.1780272000000000 K
   0.5726106100000000    0.5726106100000000    0.5726106100000000 K
   0.9273893900000000    0.4273893900000000    0.0726106100000000 K
   0.0726106100000000    0.9273893900000000    0.4273893900000000 K
   0.4273893900000000    0.0726106100000000    0.9273893900000000 K
   0.8143419000000000    0.8143419000000000    0.8143419000000000 K
   0.6856580999999990    0.1856581000000000    0.3143419000000000 K
   0.3143419000000000    0.6856580999999990    0.1856581000000000 K
   0.1856581000000000    0.3143419000000000    0.6856580999999990 K
   0.9650462300000000    0.5349537700000000    0.4650462300000000 Bi
   0.4650462300000000    0.9650462300000000    0.5349537700000000 Bi
   0.0349537700000000    0.0349537700000000    0.0349537700000000 Bi
   0.5349537700000000    0.4650462300000000    0.9650462300000000 Bi
   0.7750849600000000    0.1113782500000000    0.0013992700000000 Se
   0.7249150400000001    0.8886217500000000    0.5013992700000001 Se
   0.2750849600000000    0.3886217500000000    0.9986007300000000 Se
   0.1113782500000000    0.0013992700000000    0.7750849600000000 Se
   0.2249150400000000    0.6113782500000000    0.4986007300000000 Se
   0.4986007300000000    0.2249150400000000    0.6113782500000000 Se
   0.6113782500000000    0.4986007300000000    0.2249150400000000 Se
   0.8886217500000000    0.5013992700000001    0.7249150400000001 Se
   0.9986007300000000    0.2750849600000000    0.3886217500000000 Se
   0.3886217500000000    0.9986007300000000    0.2750849600000000 Se
   0.0013992700000000    0.7750849600000000    0.1113782500000000 Se
   0.5013992700000001    0.7249150400000001    0.8886217500000000 Se
