Cs12 As4 Se16
1.0
  10.1369656999999993    0.0000000000000000    0.0000000000000000
  -0.0000000000000000   10.3297011899999998    0.0000000000000000
   0.0000000000000000    0.0000000000000000   12.0535795799999992
Cs As Se
12 4 16
direct
   0.5433393300000000    0.6979860300000000    0.0405225400000000 Cs
   0.0433393300000000    0.8020139700000000    0.4594774600000000 Cs
   0.4566606700000000    0.3020139700000000    0.5405225400000000 Cs
   0.9566606700000000    0.1979860300000000    0.9594774600000000 Cs
   0.4566606700000000    0.3020139700000000    0.9594774600000000 Cs
   0.9566606700000000    0.1979860300000000    0.5405225400000000 Cs
   0.5433393300000000    0.6979860300000000    0.4594774600000000 Cs
   0.0433393300000000    0.8020139700000000    0.0405225400000000 Cs
   0.3449169600000000    0.0903558800000000    0.2500000000000000 Cs
   0.8449169600000001    0.4096441200000000    0.2500000000000000 Cs
   0.6550830400000001    0.9096441200000001    0.7500000000000000 Cs
   0.1550830400000000    0.5903558800000001    0.7500000000000000 Cs
   0.2699689600000000    0.5252266000000000    0.2500000000000000 As
   0.7699689600000000    0.9747733999999991    0.2500000000000000 As
   0.7300310400000000    0.4747733999999990    0.7500000000000000 As
   0.2300310400000000    0.0252266000000000    0.7500000000000000 As
   0.2954142700000000    0.7488063600000000    0.2500000000000000 Se
   0.7954142700000000    0.7511936400000000    0.2500000000000000 Se
   0.7045857300000000    0.2511936400000000    0.7500000000000000 Se
   0.2045857300000000    0.2488063600000000    0.7500000000000000 Se
   0.4782482500000000    0.4277605600000000    0.2500000000000000 Se
   0.9782482500000000    0.0722394400000000    0.2500000000000000 Se
   0.5217517500000000    0.5722394400000000    0.7500000000000000 Se
   0.0217517500000000    0.9277605600000001    0.7500000000000000 Se
   0.1581654800000000    0.4645250200000000    0.0897819800000000 Se
   0.6581654800000000    0.0354749800000000    0.4102180200000000 Se
   0.8418345200000000    0.5354749800000000    0.5897819800000000 Se
   0.3418345200000000    0.9645250200000001    0.9102180200000001 Se
   0.8418345200000000    0.5354749800000000    0.9102180200000001 Se
   0.3418345200000000    0.9645250200000001    0.5897819800000000 Se
   0.1581654800000000    0.4645250200000000    0.4102180200000000 Se
   0.6581654800000000    0.0354749800000000    0.0897819800000000 Se
