Li12 Bi4 S12
1.0
  16.1413440000000001    0.0000000000000000    0.0000000000000000
   0.0000000000000000    5.8763949999999996    0.0000000000000000
   0.0000000000000000    5.7867619999999995    6.0177829999999997
Li Bi S
12 4 12
direct
   0.6917120000000000    0.3589569999999990    0.1761750000000000 Li
   0.4292930000000000    0.7077620000000000    0.0925039999999990 Li
   0.9292929999999990    0.2922380000000000    0.4074959999999990 Li
   0.1917120000000000    0.6410429999999990    0.3238250000000000 Li
   0.6886050000000000    0.7940440000000000    0.2320460000000000 Li
   0.1886050000000000    0.2059560000000000    0.2679539999999990 Li
   0.8113950000000000    0.7940440000000000    0.7320460000000000 Li
   0.3113950000000000    0.2059560000000000    0.7679539999999990 Li
   0.8082880000000000    0.3589569999999990    0.6761750000000000 Li
   0.0707069999999990    0.7077620000000000    0.5925039999999990 Li
   0.5707070000000000    0.2922380000000000    0.9074960000000000 Li
   0.3082880000000000    0.6410429999999990    0.8238249999999990 Li
   0.9118510000000000    0.1371850000000000    0.0871769999999990 Bi
   0.4118509999999990    0.8628150000000000    0.4128230000000000 Bi
   0.5881489999999990    0.1371850000000000    0.5871769999999999 Bi
   0.0881489999999990    0.8628150000000000    0.9128229999999991 Bi
   0.9104880000000000    0.7758740000000000    0.9931600000000000 S
   0.2538350000000000    0.7068200000000000    0.0416720000000000 S
   0.4180879999999990    0.2510030000000000    0.9778239999999990 S
   0.7538349999999990    0.2931800000000000    0.4583279999999990 S
   0.9180879999999990    0.7489969999999990    0.5221760000000000 S
   0.4104879999999990    0.2241260000000000    0.5068400000000001 S
   0.5895119999999990    0.7758740000000000    0.4931600000000000 S
   0.0819120000000000    0.2510030000000000    0.4778239999999990 S
   0.2461650000000000    0.7068200000000000    0.5416719999999990 S
   0.5819120000000000    0.7489969999999990    0.0221759999999990 S
   0.7461650000000000    0.2931800000000000    0.9583280000000000 S
   0.0895120000000000    0.2241260000000000    0.0068400000000000 S
