Bi4 S6 O24
1.0
   8.4341349900000004   -4.5115919199999999   -0.0268341500000000
   8.4341350599999991    4.5115917899999998   -0.0268353500000000
   6.0444641499999996    0.0000001200000000    7.4131146900000005
Bi S O
4 6 24
direct
   0.3496003500000000    0.3496003500000000    0.3496003500000000 Bi
   0.1421125100000000    0.1421125100000000    0.1421125100000000 Bi
   0.8578874900000000    0.8578874900000000    0.8578874900000000 Bi
   0.6503996500000000    0.6503996500000000    0.6503996500000000 Bi
   0.7557120300000000    0.0300563500000000    0.4618012800000000 S
   0.5381987200000000    0.2442879700000000    0.9699436500000000 S
   0.0300563500000000    0.4618012800000000    0.7557120300000000 S
   0.9699436500000000    0.5381987200000000    0.2442879700000000 S
   0.4618012800000000    0.7557120300000000    0.0300563500000000 S
   0.2442879700000000    0.9699436500000000    0.5381987200000000 S
   0.7992648800000001    0.0274796300000000    0.5889815300000000 O
   0.8616645100000000    0.1172664600000000    0.2757301400000000 O
   0.7242698600000000    0.1383354900000000    0.8827335400000000 O
   0.5630060100000001    0.1300766400000000    0.4932176700000000 O
   0.5135234700000000    0.1960247500000000    0.1566820100000000 O
   0.4110184700000000    0.2007351200000000    0.9725203700000000 O
   0.5067823300000001    0.4369939900000000    0.8699233600000000 O
   0.1960247500000000    0.1566820100000000    0.5135234700000000 O
   0.1172664600000000    0.2757301400000000    0.8616645100000000 O
   0.1300766400000000    0.4932176700000000    0.5630060100000001 O
   0.1566820100000000    0.5135234700000000    0.1960247500000000 O
   0.9725203700000000    0.4110184700000000    0.2007351200000000 O
   0.0274796300000000    0.5889815300000000    0.7992648800000001 O
   0.8433179900000001    0.4864765300000000    0.8039752500000000 O
   0.8699233600000000    0.5067823300000001    0.4369939900000000 O
   0.8827335400000000    0.7242698600000000    0.1383354900000000 O
   0.8039752500000000    0.8433179900000001    0.4864765300000000 O
   0.4932176700000000    0.5630060100000001    0.1300766400000000 O
   0.5889815300000000    0.7992648800000001    0.0274796300000000 O
   0.4864765300000000    0.8039752500000000    0.8433179900000001 O
   0.4369939900000000    0.8699233600000000    0.5067823300000001 O
   0.2757301400000000    0.8616645100000000    0.1172664600000000 O
   0.1383354900000000    0.8827335400000000    0.7242698600000000 O
   0.2007351200000000    0.9725203700000000    0.4110184700000000 O
