Sb12 S8 Xe4 N4 O16 F72
1.0
  10.8363820000000004    0.0000000000000000    0.0000000000000000
   0.0000000000000000   10.5113509999999994    0.0000000000000000
   0.0000000000000000    5.8063130000000003   17.6051099999999998
Sb S Xe N O F
12 8 4 4 16 72
direct
   0.7393250000000000    0.0864969999999990    0.4597380000000000 Sb
   0.2892150000000000    0.3605270000000000    0.6125370000000000 Sb
   0.7107850000000000    0.6394730000000000    0.3874630000000000 Sb
   0.2606750000000000    0.9135030000000000    0.5402620000000000 Sb
   0.2107850000000000    0.3605270000000000    0.1125370000000000 Sb
   0.4251359999999990    0.0334720000000000    0.1948480000000000 Sb
   0.9251360000000000    0.9665279999999991    0.3051520000000000 Sb
   0.5748639999999990    0.9665279999999991    0.8051520000000000 Sb
   0.2393249999999990    0.9135030000000000    0.0402620000000000 Sb
   0.7892150000000000    0.6394730000000000    0.8874630000000000 Sb
   0.7606750000000000    0.0864969999999990    0.9597380000000000 Sb
   0.0748640000000000    0.0334720000000000    0.6948480000000000 Sb
   0.7458650000000000    0.3933540000000000    0.6636730000000000 S
   0.3646840000000000    0.3417380000000000    0.3457510000000000 S
   0.7541350000000000    0.3933540000000000    0.1636729999999990 S
   0.2458650000000000    0.6066460000000000    0.8363269999999990 S
   0.2541350000000000    0.6066460000000000    0.3363270000000000 S
   0.6353160000000000    0.6582620000000000    0.6542490000000000 S
   0.1353160000000000    0.3417380000000000    0.8457509999999990 S
   0.8646840000000000    0.6582620000000000    0.1542490000000000 S
   0.0699950000000000    0.3337029999999990    0.3822609999999990 Xe
   0.5699950000000000    0.6662969999999990    0.1177390000000000 Xe
   0.9300050000000000    0.6662969999999990    0.6177389999999990 Xe
   0.4300049999999990    0.3337029999999990    0.8822610000000000 Xe
   0.7412879999999999    0.5644020000000000    0.1472450000000000 N
   0.7587119999999991    0.5644020000000000    0.6472450000000000 N
   0.2587120000000000    0.4355980000000000    0.8527549999999990 N
   0.2412880000000000    0.4355980000000000    0.3527550000000000 N
   0.0580530000000000    0.4258470000000000    0.7879450000000000 O
   0.2715320000000000    0.6761889999999990    0.7591479999999990 O
   0.1402479999999990    0.6238110000000000    0.8778819999999991 O
   0.2284679999999990    0.6761889999999990    0.2591480000000000 O
   0.3597519999999990    0.6238110000000000    0.3778820000000000 O
   0.5580530000000000    0.5741530000000000    0.7120550000000000 O
   0.7284680000000000    0.3238109999999990    0.2408519999999990 O
   0.4419470000000000    0.4258470000000000    0.2879450000000000 O
   0.7715320000000000    0.3238109999999990    0.7408520000000000 O
   0.8597520000000000    0.3761890000000000    0.1221179999999990 O
   0.6781509999999999    0.7863509999999990    0.6525480000000000 O
   0.6402479999999990    0.3761890000000000    0.6221179999999999 O
   0.1781510000000000    0.2136489999999990    0.8474520000000000 O
   0.3218490000000000    0.2136489999999990    0.3474520000000000 O
   0.8218489999999991    0.7863509999999990    0.1525480000000000 O
   0.9419470000000000    0.5741530000000000    0.2120550000000000 O
   0.7203320000000000    0.6837569999999999    0.9713980000000000 F
   0.4093000000000000    0.2247660000000000    0.6253329999999990 F
   0.1409040000000000    0.7962540000000000    0.1161870000000000 F
   0.8010619999999991    0.1610930000000000    0.0366940000000000 F
   0.1399820000000000    0.0330580000000000    0.4824080000000000 F
   0.6651629999999999    0.6195200000000001    0.2923850000000000 F
   0.5907000000000000    0.7752340000000000    0.3746670000000000 F
   0.1193360000000000    0.5074230000000000    0.0517430000000000 F
   0.1782939999999990    0.1987340000000000    0.6814190000000000 F
   0.8217059999999990    0.8012659999999990    0.3185810000000000 F
   0.7927109999999991    0.0117670000000000    0.3715230000000000 F
   0.5062710000000000    0.8771939999999990    0.1888610000000000 F
   0.6825600000000001    0.0516960000000000    0.7247279999999990 F
   0.3634380000000000    0.6208810000000000    0.8837180000000000 F
   0.4298929999999990    0.3271190000000000    0.4235239999999990 F
   0.9093000000000000    0.7752340000000000    0.8746670000000000 F
   0.3174400000000000    0.9483039999999990    0.2752719999999990 F
   0.1250890000000000    0.7836290000000000    0.5782570000000000 F
   0.3010620000000000    0.8389070000000000    0.4633060000000000 F
   0.4965279999999990    0.8642350000000000    0.8958370000000000 F
   0.9965280000000000    0.1357650000000000    0.6041630000000000 F
   0.8749110000000000    0.2163709999999990    0.4217430000000000 F
   0.1825600000000000    0.9483039999999990    0.7752720000000000 F
   0.1365620000000000    0.6208810000000000    0.3837180000000000 F
   0.8806640000000000    0.4925770000000000    0.9482569999999991 F
   0.3590959999999990    0.7962540000000000    0.6161869999999990 F
   0.1651630000000000    0.3804800000000000    0.2076150000000000 F
   0.3798769999999990    0.0509890000000000    0.5192070000000000 F
   0.8556100000000001    0.5360000000000000    0.3870690000000000 F
   0.2796679999999990    0.3162430000000000    0.0286020000000000 F
   0.3806640000000000    0.5074230000000000    0.5517430000000000 F
   0.2072890000000000    0.9882329999999990    0.6284770000000000 F
   0.1201230000000000    0.0509890000000000    0.0192070000000000 F
   0.6193360000000000    0.4925770000000000    0.4482569999999990 F
   0.9675779999999990    0.0884500000000000    0.7592920000000000 F
   0.6443900000000000    0.5360000000000000    0.8870690000000000 F
   0.6399819999999991    0.9669420000000000    0.0175920000000000 F
   0.8600179999999999    0.9669420000000000    0.5175919999999991 F
   0.4675780000000000    0.9115500000000001    0.7407079999999990 F
   0.0034720000000000    0.8642350000000000    0.3958370000000000 F
   0.2203320000000000    0.3162430000000000    0.5286020000000000 F
   0.1989380000000000    0.8389070000000000    0.9633060000000000 F
   0.5324220000000000    0.0884500000000000    0.2592919999999990 F
   0.9298930000000000    0.6728810000000000    0.0764760000000000 F
   0.1443900000000000    0.4640000000000000    0.6129310000000000 F
   0.5701069999999990    0.6728810000000000    0.5764760000000000 F
   0.7796679999999990    0.6837569999999999    0.4713980000000000 F
   0.0907000000000000    0.2247660000000000    0.1253330000000000 F
   0.6409039999999990    0.2037459999999990    0.3838129999999990 F
   0.6201230000000000    0.9490109999999990    0.4807929999999990 F
   0.8634379999999990    0.3791190000000000    0.6162820000000000 F
   0.4937290000000000    0.1228060000000000    0.8111389999999991 F
   0.5034720000000000    0.1357650000000000    0.1041629999999990 F
   0.8590960000000000    0.2037459999999990    0.8838130000000000 F
   0.6989379999999999    0.1610930000000000    0.5366940000000000 F
   0.8798769999999990    0.9490109999999990    0.9807929999999990 F
   0.3600180000000000    0.0330580000000000    0.9824079999999999 F
   0.6365620000000000    0.3791190000000000    0.1162820000000000 F
   0.8348369999999991    0.6195200000000001    0.7923850000000000 F
   0.8174400000000001    0.0516960000000000    0.2247279999999990 F
   0.6782940000000000    0.8012659999999990    0.8185810000000000 F
   0.0701070000000000    0.3271190000000000    0.9235240000000000 F
   0.7072889999999999    0.0117670000000000    0.8715229999999990 F
   0.9937290000000000    0.8771939999999990    0.6888609999999999 F
   0.0324220000000000    0.9115500000000001    0.2407079999999990 F
   0.2927110000000000    0.9882329999999990    0.1284770000000000 F
   0.3556100000000000    0.4640000000000000    0.1129309999999990 F
   0.0062710000000000    0.1228060000000000    0.3111390000000000 F
   0.3217060000000000    0.1987340000000000    0.1814190000000000 F
   0.6250890000000000    0.2163709999999990    0.9217430000000000 F
   0.3749110000000000    0.7836290000000000    0.0782570000000000 F
   0.3348370000000000    0.3804800000000000    0.7076150000000000 F
