Rb6 Nb4 As2 Se22
1.0
   6.9234879999999999    7.7377240000000000    0.0000000000000000
  -6.9234879999999999    7.7377240000000000    0.0000000000000000
   0.0000000000000000    1.5276570000000000   10.1305639999999997
Rb Nb As Se
6 4 2 22
direct
   0.5119540000000000    0.3563940000000000    0.9311210000000000 Rb
   0.9888509999999990    0.1479530000000000    0.0147350000000000 Rb
   0.7522770000000000    0.8874219999999990    0.6854580000000000 Rb
   0.3563940000000000    0.5119540000000000    0.4311210000000000 Rb
   0.8874219999999990    0.7522770000000000    0.1854579999999990 Rb
   0.1479530000000000    0.9888509999999990    0.5147349999999991 Rb
   0.7942709999999999    0.2479150000000000    0.4136530000000000 Nb
   0.2479150000000000    0.7942709999999999    0.9136529999999990 Nb
   0.4979289999999990    0.9095449999999990    0.0992489999999990 Nb
   0.9095449999999990    0.4979289999999990    0.5992489999999990 Nb
   0.1275330000000000    0.4488060000000000    0.8600510000000000 As
   0.4488060000000000    0.1275330000000000    0.3600510000000000 As
   0.5752100000000000    0.6640969999999990    0.1595089999999990 Se
   0.3993930000000000    0.8962909999999999    0.7138400000000000 Se
   0.3518679999999990    0.0212400000000000    0.8990020000000000 Se
   0.2798270000000000    0.5999110000000000    0.7584719999999990 Se
   0.8235859999999990    0.2335380000000000    0.6677210000000000 Se
   0.9026860000000000    0.5336520000000000    0.8521630000000000 Se
   0.6640969999999990    0.5752100000000000    0.6595090000000000 Se
   0.5336520000000000    0.9026860000000000    0.3521630000000000 Se
   0.2335380000000000    0.8235859999999990    0.1677209999999990 Se
   0.0347100000000000    0.8705740000000000    0.8554130000000000 Se
   0.2200860000000000    0.6094430000000000    0.1048019999999990 Se
   0.6809010000000000    0.0218049999999990    0.0144820000000000 Se
   0.1098900000000000    0.3220070000000000    0.6731950000000000 Se
   0.7267509999999990    0.5240440000000000    0.4382740000000000 Se
   0.8705740000000000    0.0347100000000000    0.3554130000000000 Se
   0.5240440000000000    0.7267509999999990    0.9382739999999991 Se
   0.8962909999999999    0.3993930000000000    0.2138400000000000 Se
   0.6094430000000000    0.2200860000000000    0.6048020000000000 Se
   0.3220070000000000    0.1098900000000000    0.1731950000000000 Se
   0.0212400000000000    0.3518679999999990    0.3990019999999990 Se
   0.5999110000000000    0.2798270000000000    0.2584720000000000 Se
   0.0218049999999990    0.6809010000000000    0.5144820000000000 Se
