Cs12 Ag4 As16 Se32
1.0
   4.4763229999999998   12.9006299999999996    0.0000000000000000
  -4.4763229999999998   12.9006299999999996    0.0000000000000000
   0.0000000000000000   10.6646099999999997   20.5712669999999989
Cs Ag As Se
12 4 16 32
direct
   0.0000000000000000    0.5000000000000000    0.5000000000000000 Cs
   0.5000000000000000    0.0000000000000000    0.0000000000000000 Cs
   0.4461029999999990    0.1596610000000000    0.2298609999999990 Cs
   0.8403389999999999    0.5538970000000000    0.2701389999999990 Cs
   0.5538970000000000    0.8403389999999999    0.7701390000000000 Cs
   0.1596610000000000    0.4461029999999990    0.7298610000000000 Cs
   0.7489340000000000    0.3920119999999990    0.5054510000000000 Cs
   0.6079880000000000    0.2510660000000000    0.9945489999999991 Cs
   0.2510660000000000    0.6079880000000000    0.4945489999999990 Cs
   0.3920119999999990    0.7489340000000000    0.0054510000000000 Cs
   0.7113290000000000    0.2886710000000000    0.2500000000000000 Cs
   0.2886710000000000    0.7113290000000000    0.7500000000000000 Cs
   0.4107280000000000    0.0958030000000000    0.4120740000000000 Ag
   0.9041969999999990    0.5892720000000000    0.0879259999999990 Ag
   0.5892720000000000    0.9041969999999990    0.5879259999999999 Ag
   0.0958030000000000    0.4107280000000000    0.9120739999999991 Ag
   0.0388830000000000    0.6905589999999990    0.1164630000000000 As
   0.3094409999999990    0.9611170000000000    0.3835369999999990 As
   0.9611170000000000    0.3094409999999990    0.8835369999999990 As
   0.6905589999999990    0.0388830000000000    0.6164630000000000 As
   0.8210480000000000    0.8732869999999990    0.3179940000000000 As
   0.1267130000000000    0.1789520000000000    0.1820060000000000 As
   0.1789520000000000    0.1267130000000000    0.6820060000000000 As
   0.8732869999999990    0.8210480000000000    0.8179940000000000 As
   0.6345100000000000    0.0520189999999990    0.4680400000000000 As
   0.9479810000000000    0.3654900000000000    0.0319600000000000 As
   0.3654900000000000    0.9479810000000000    0.5319600000000000 As
   0.0520189999999990    0.6345100000000000    0.9680400000000001 As
   0.1991700000000000    0.7026789999999991    0.2007340000000000 As
   0.2973210000000000    0.8008300000000000    0.2992660000000000 As
   0.8008300000000000    0.2973210000000000    0.7992659999999990 As
   0.7026789999999991    0.1991700000000000    0.7007340000000000 As
   0.0104370000000000    0.8877189999999990    0.1223170000000000 Se
   0.1122809999999990    0.9895630000000000    0.3776830000000000 Se
   0.9895630000000000    0.1122809999999990    0.8776830000000000 Se
   0.8877189999999990    0.0104370000000000    0.6223170000000000 Se
   0.1511519999999990    0.2311639999999990    0.3829639999999990 Se
   0.7688360000000000    0.8488479999999990    0.1170360000000000 Se
   0.8488479999999990    0.7688360000000000    0.6170359999999990 Se
   0.2311639999999990    0.1511519999999990    0.8829640000000000 Se
   0.1604539999999990    0.6821780000000000    0.0000910000000000 Se
   0.3178220000000000    0.8395460000000000    0.4999090000000000 Se
   0.8395460000000000    0.3178220000000000    0.9999089999999990 Se
   0.6821780000000000    0.1604539999999990    0.5000910000000000 Se
   0.4353300000000001    0.2749870000000000    0.4012060000000000 Se
   0.7250130000000000    0.5646700000000000    0.0987939999999990 Se
   0.5646700000000000    0.7250130000000000    0.5987939999999990 Se
   0.2749870000000000    0.4353300000000001    0.9012060000000000 Se
   0.8961960000000000    0.8886919999999990    0.3916179999999990 Se
   0.1113079999999990    0.1038040000000000    0.1083819999999990 Se
   0.1038040000000000    0.1113079999999990    0.6083820000000000 Se
   0.8886919999999990    0.8961960000000000    0.8916179999999990 Se
   0.6910720000000000    0.7982980000000000    0.3828860000000000 Se
   0.2017020000000000    0.3089280000000000    0.1171140000000000 Se
   0.3089280000000000    0.2017020000000000    0.6171139999999991 Se
   0.7982980000000000    0.6910720000000000    0.8828859999999999 Se
   0.0841389999999990    0.6116500000000000    0.2890669999999990 Se
   0.3883500000000000    0.9158609999999990    0.2109329999999990 Se
   0.9158609999999990    0.3883500000000000    0.7109329999999990 Se
   0.6116500000000000    0.0841389999999990    0.7890670000000000 Se
   0.4280509999999990    0.4711180000000000    0.1537190000000000 Se
   0.5288820000000000    0.5719489999999990    0.3462810000000000 Se
   0.5719489999999990    0.5288820000000000    0.8462809999999999 Se
   0.4711180000000000    0.4280509999999990    0.6537189999999991 Se
