In8 Bi12 Se28 I4
1.0
   4.2049019999999997    0.0000000000000000    0.0000000000000000
   0.0000000000000000   13.7116790000000002    0.0000000000000000
   0.0000000000000000    0.0000000000000000   27.3268209999999989
In Bi Se I
8 12 28 4
direct
   0.2500000000000000    0.9156890000000000    0.5337740000000000 In
   0.2500000000000000    0.5843110000000000    0.0337740000000000 In
   0.7500000000000000    0.0843110000000000    0.4662260000000000 In
   0.7500000000000000    0.4156890000000000    0.9662259999999990 In
   0.2500000000000000    0.9585279999999990    0.9472990000000000 In
   0.2500000000000000    0.5414720000000000    0.4472990000000000 In
   0.7500000000000000    0.0414719999999990    0.0527010000000000 In
   0.7500000000000000    0.4585280000000000    0.5527010000000000 In
   0.2500000000000000    0.0742070000000000    0.6859609999999990 Bi
   0.2500000000000000    0.4257930000000000    0.1859610000000000 Bi
   0.7500000000000000    0.9257930000000000    0.3140390000000000 Bi
   0.7500000000000000    0.5742070000000000    0.8140390000000000 Bi
   0.2500000000000000    0.4494249999999990    0.6920379999999990 Bi
   0.2500000000000000    0.0505749999999990    0.1920380000000000 Bi
   0.7500000000000000    0.5505749999999990    0.3079620000000000 Bi
   0.7500000000000000    0.9494250000000000    0.8079620000000000 Bi
   0.2500000000000000    0.2966140000000000    0.8436629999999991 Bi
   0.2500000000000000    0.2033859999999990    0.3436630000000000 Bi
   0.7500000000000000    0.7033860000000000    0.1563370000000000 Bi
   0.7500000000000000    0.7966139999999990    0.6563369999999999 Bi
   0.2500000000000000    0.3790580000000000    0.5097760000000000 Se
   0.2500000000000000    0.1209420000000000    0.0097760000000000 Se
   0.7500000000000000    0.6209420000000000    0.4902240000000000 Se
   0.7500000000000000    0.8790580000000000    0.9902240000000000 Se
   0.2500000000000000    0.1104400000000000    0.5271340000000000 Se
   0.2500000000000000    0.3895600000000000    0.0271340000000000 Se
   0.7500000000000000    0.8895600000000000    0.4728659999999990 Se
   0.7500000000000000    0.6104400000000001    0.9728660000000000 Se
   0.2500000000000000    0.7539070000000000    0.5879810000000000 Se
   0.2500000000000000    0.7460930000000000    0.0879809999999990 Se
   0.7500000000000000    0.2460929999999990    0.4120189999999990 Se
   0.7500000000000000    0.2539070000000000    0.9120189999999990 Se
   0.2500000000000000    0.8916930000000000    0.7312540000000000 Se
   0.2500000000000000    0.6083069999999990    0.2312540000000000 Se
   0.7500000000000000    0.1083070000000000    0.2687460000000000 Se
   0.7500000000000000    0.3916929999999990    0.7687459999999990 Se
   0.2500000000000000    0.6255680000000000    0.7420479999999990 Se
   0.2500000000000000    0.8744320000000000    0.2420479999999990 Se
   0.7500000000000000    0.3744320000000000    0.2579520000000000 Se
   0.7500000000000000    0.1255679999999990    0.7579520000000000 Se
   0.2500000000000000    0.0497510000000000    0.8632050000000000 Se
   0.2500000000000000    0.4502489999999990    0.3632050000000000 Se
   0.7500000000000000    0.9502490000000000    0.1367950000000000 Se
   0.7500000000000000    0.5497510000000000    0.6367950000000000 Se
   0.2500000000000000    0.4836629999999990    0.8785950000000000 Se
   0.2500000000000000    0.0163370000000000    0.3785949999999990 Se
   0.7500000000000000    0.5163369999999990    0.1214050000000000 Se
   0.7500000000000000    0.9836630000000000    0.6214050000000000 Se
   0.2500000000000000    0.7664920000000000    0.8661219999999999 I
   0.2500000000000000    0.7335079999999990    0.3661220000000000 I
   0.7500000000000000    0.2335080000000000    0.1338780000000000 I
   0.7500000000000000    0.2664920000000000    0.6338779999999991 I
