Hg12 Sb4 As4 S12
1.0
   4.5796219999999996    0.0000000000000000    0.0000000000000000
   0.0000000000000000   11.9773870000000002    0.0000000000000000
   0.0000000000000000   11.5112120000000004   16.0204139999999988
Hg Sb As S
12 4 4 12
direct
   0.7320949999999991    0.9423800000000001    0.4239020000000000 Hg
   0.8763150000000000    0.7010339999999990    0.1793660000000000 Hg
   0.6236849999999990    0.7010339999999990    0.6793659999999990 Hg
   0.7787219999999990    0.2064490000000000    0.6877130000000000 Hg
   0.2320950000000000    0.0576200000000000    0.0760980000000000 Hg
   0.2212780000000000    0.7935510000000000    0.3122870000000000 Hg
   0.3763150000000000    0.2989660000000000    0.3206340000000000 Hg
   0.7679049999999999    0.9423800000000001    0.9239020000000000 Hg
   0.2679050000000000    0.0576200000000000    0.5760980000000000 Hg
   0.1236849999999990    0.2989660000000000    0.8206340000000000 Hg
   0.7212780000000000    0.2064490000000000    0.1877130000000000 Hg
   0.2787219999999990    0.7935510000000000    0.8122870000000000 Hg
   0.6917740000000000    0.4037679999999990    0.9503490000000000 Sb
   0.8082260000000000    0.4037679999999990    0.4503490000000000 Sb
   0.3082260000000000    0.5962320000000000    0.0496510000000000 Sb
   0.1917740000000000    0.5962320000000000    0.5496510000000000 Sb
   0.3625500000000000    0.0983970000000000    0.3082370000000000 As
   0.1374500000000000    0.0983970000000000    0.8082370000000000 As
   0.6374500000000001    0.9016029999999990    0.6917630000000000 As
   0.8625500000000000    0.9016029999999990    0.1917630000000000 As
   0.6034769999999990    0.1838459999999990    0.9654889999999990 S
   0.4422910000000000    0.3100320000000000    0.5692530000000000 S
   0.1034770000000000    0.8161539999999990    0.5345110000000000 S
   0.5436719999999990    0.5108700000000000    0.6655869999999990 S
   0.8965230000000000    0.1838459999999990    0.4654890000000000 S
   0.5577090000000000    0.6899679999999990    0.4307470000000000 S
   0.0436719999999990    0.4891300000000001    0.8344130000000000 S
   0.9422910000000000    0.6899679999999990    0.9307470000000000 S
   0.0577089999999990    0.3100320000000000    0.0692530000000000 S
   0.9563280000000000    0.5108700000000000    0.1655869999999990 S
   0.4563279999999990    0.4891300000000001    0.3344129999999990 S
   0.3965229999999990    0.8161539999999990    0.0345110000000000 S
