Li12 As4 S12
1.0
   6.6412910199999997    0.0000000000000000    0.0000000000000000
   0.0000000000000000    8.0481325800000008    0.0000000000000000
   0.0000000000000000    0.0000000000000000    9.8169972699999999
Li As S
12 4 12
direct
   0.1184709500000000    0.7515606300000001    0.1112124800000000 Li
   0.8815290500000000    0.2484393700000000    0.6112124800000001 Li
   0.3815290500000000    0.2515606300000000    0.1112124800000000 Li
   0.6184709500000000    0.7484393700000000    0.6112124800000001 Li
   0.3535139100000000    0.0792449300000000    0.8099252100000001 Li
   0.6464860900000000    0.9207550700000000    0.3099252100000000 Li
   0.4506110500000000    0.5670087100000000    0.2793236400000000 Li
   0.5493889500000000    0.4329912900000000    0.7793236400000000 Li
   0.0493889500000000    0.0670087100000000    0.2793236400000000 Li
   0.9506110500000000    0.9329912900000000    0.7793236400000000 Li
   0.1464860900000000    0.5792449300000000    0.8099252100000001 Li
   0.8535139100000000    0.4207550700000000    0.3099252100000000 Li
   0.0984503900000000    0.7541517800000000    0.4995463700000000 As
   0.9015496100000000    0.2458482200000000    0.9995463700000000 As
   0.4015496100000000    0.2541517800000000    0.4995463700000000 As
   0.5984503900000000    0.7458482200000001    0.9995463700000000 As
   0.7916281400000000    0.6600413300000000    0.8248699600000000 S
   0.2083718600000000    0.3399586700000000    0.3248699600000000 S
   0.7083718600000000    0.1600413300000000    0.8248699600000000 S
   0.2916281400000000    0.8399586700000000    0.3248699600000000 S
   0.2180822500000000    0.3164155400000000    0.6861632400000001 S
   0.7819177500000000    0.6835844600000001    0.1861632400000000 S
   0.3597152300000000    0.5431761700000000    0.0096571000000000 S
   0.6402847700000001    0.4568238300000000    0.5096571000000000 S
   0.1402847700000000    0.0431761700000000    0.0096571000000000 S
   0.8597152300000001    0.9568238300000000    0.5096571000000000 S
   0.2819177500000000    0.8164155400000001    0.6861632400000001 S
   0.7180822500000000    0.1835844600000000    0.1861632400000000 S
