Li6 Sb2 S6
1.0
   6.8162779999999996   -3.5684640000000001    0.0000000000000000
   6.8162779999999996    3.5684640000000001    0.0000000000000000
   4.9481130000000002    0.0000000000000000    5.8916700000000004
Li Sb S
6 2 6
direct
   0.3661510000000000    0.0919670000000000    0.6869130000000000 Li
   0.9080330000000000    0.3130870000000000    0.6338490000000000 Li
   0.6869130000000000    0.3661510000000000    0.0919670000000000 Li
   0.3130870000000000    0.6338490000000000    0.9080330000000000 Li
   0.0919670000000000    0.6869130000000000    0.3661510000000000 Li
   0.6338490000000000    0.9080330000000000    0.3130870000000000 Li
   0.1815400000000000    0.1815400000000000    0.1815400000000000 Sb
   0.8184600000000001    0.8184600000000001    0.8184600000000001 Sb
   0.7689929999999990    0.0359470000000000    0.4335050000000000 S
   0.5664950000000000    0.2310070000000000    0.9640529999999990 S
   0.0359470000000000    0.4335050000000000    0.7689929999999990 S
   0.9640529999999990    0.5664950000000000    0.2310070000000000 S
   0.4335050000000000    0.7689929999999990    0.0359470000000000 S
   0.2310070000000000    0.9640529999999990    0.5664950000000000 S
