In3 As1 Se3
1.0
  -2.9933440000000000   -2.9933440000000000    0.0000000000000000
  -2.9833289999999999    2.9833289999999999   -6.1064660000000002
   6.0217929999999997   -3.0284490000000002   -3.1014499999999998
In As Se
3 1 3
direct
   0.7537180000000000    0.2534840000000000    0.5074360000000000 In
   0.4905950000000000    0.5116189999999990    0.9811890000000000 In
   0.2587720000000000    0.7468140000000000    0.5175440000000000 In
   0.6817810000000000    0.5625300000000001    0.3635629999999990 As
   0.4402780000000000    0.8273459999999990    0.8805569999999990 Se
   0.1826720000000000    0.0586220000000000    0.3653450000000000 Se
   0.9421830000000000    0.2895850000000000    0.8843670000000000 Se
