Ag36 As12 Se36
1.0
   8.2376190000000005    0.0000000000000000    0.0000000000000000
   0.0000000000000000   11.5026290000000007    0.0000000000000000
   0.0000000000000000    0.0000000000000000   21.1060039999999987
Ag As Se
36 12 36
direct
   0.2143380000000000    0.4294260000000000    0.0572950000000000 Ag
   0.2856619999999990    0.9294260000000000    0.5572950000000000 Ag
   0.1443920000000000    0.5174759999999990    0.8225830000000000 Ag
   0.1443920000000000    0.9825240000000000    0.8225830000000000 Ag
   0.3316119999999990    0.3896670000000000    0.7155980000000000 Ag
   0.7754770000000000    0.7500000000000000    0.6309150000000000 Ag
   0.7856620000000000    0.9294260000000000    0.9427049999999991 Ag
   0.8767490000000000    0.5349459999999990    0.5599310000000000 Ag
   0.6683880000000000    0.6103330000000000    0.2844020000000000 Ag
   0.6232510000000000    0.0349460000000000    0.0599310000000000 Ag
   0.6443920000000000    0.5174759999999990    0.6774169999999990 Ag
   0.8767490000000000    0.9650540000000000    0.5599310000000000 Ag
   0.3556080000000000    0.0174760000000000    0.3225830000000000 Ag
   0.8556079999999990    0.4825239999999991    0.1774170000000000 Ag
   0.3767490000000000    0.9650540000000000    0.9400689999999990 Ag
   0.2245230000000000    0.2500000000000000    0.3690850000000000 Ag
   0.2143380000000000    0.0705740000000000    0.0572950000000000 Ag
   0.3767490000000000    0.5349459999999990    0.9400689999999990 Ag
   0.3316119999999990    0.1103330000000000    0.7155980000000000 Ag
   0.6443920000000000    0.9825240000000000    0.6774169999999990 Ag
   0.1232510000000000    0.4650539999999990    0.4400690000000000 Ag
   0.1683879999999990    0.8896670000000000    0.2155979999999990 Ag
   0.7245229999999990    0.2500000000000000    0.1309150000000000 Ag
   0.2856619999999990    0.5705740000000000    0.5572950000000000 Ag
   0.7143379999999990    0.0705740000000000    0.4427049999999990 Ag
   0.7856620000000000    0.5705740000000000    0.9427049999999991 Ag
   0.2754769999999990    0.7500000000000000    0.8690850000000000 Ag
   0.8556079999999990    0.0174760000000000    0.1774170000000000 Ag
   0.8316120000000000    0.3896670000000000    0.7844019999999990 Ag
   0.3556080000000000    0.4825239999999991    0.3225830000000000 Ag
   0.6683880000000000    0.8896670000000000    0.2844020000000000 Ag
   0.6232510000000000    0.4650539999999990    0.0599310000000000 Ag
   0.1683879999999990    0.6103330000000000    0.2155979999999990 Ag
   0.8316120000000000    0.1103330000000000    0.7844019999999990 Ag
   0.1232510000000000    0.0349460000000000    0.4400690000000000 Ag
   0.7143379999999990    0.4294260000000000    0.4427049999999990 Ag
   0.7874620000000000    0.7500000000000000    0.7938320000000000 As
   0.7526260000000000    0.7500000000000000    0.1077650000000000 As
   0.2125379999999990    0.2500000000000000    0.2061680000000000 As
   0.2812630000000000    0.7500000000000000    0.0536829999999990 As
   0.2473739999999990    0.2500000000000000    0.8922350000000000 As
   0.7125380000000000    0.2500000000000000    0.2938320000000000 As
   0.2874620000000000    0.7500000000000000    0.7061680000000000 As
   0.2526259999999990    0.7500000000000000    0.3922350000000000 As
   0.7812629999999990    0.7500000000000000    0.4463169999999990 As
   0.7473740000000000    0.2500000000000000    0.6077650000000000 As
   0.2187370000000000    0.2500000000000000    0.5536829999999990 As
   0.7187370000000000    0.2500000000000000    0.9463170000000000 As
   0.6016720000000000    0.4165319999999990    0.5632600000000001 Se
   0.3983279999999990    0.9165320000000000    0.4367400000000000 Se
   0.4500119999999990    0.7500000000000000    0.6099510000000000 Se
   0.5139490000000000    0.2500000000000000    0.0319180000000000 Se
   0.8983279999999990    0.9165320000000000    0.0632600000000000 Se
   0.8983279999999990    0.5834680000000000    0.0632600000000000 Se
   0.1016720000000000    0.0834680000000000    0.9367400000000001 Se
   0.9173030000000000    0.5963900000000001    0.7311679999999990 Se
   0.0826969999999990    0.4036100000000000    0.2688320000000000 Se
   0.1130180000000000    0.2500000000000000    0.7877179999999990 Se
   0.5499879999999990    0.2500000000000000    0.3900490000000000 Se
   0.1214639999999990    0.0885900000000000    0.6185300000000000 Se
   0.9860510000000000    0.7500000000000000    0.5319180000000000 Se
   0.6016720000000000    0.0834680000000000    0.5632600000000001 Se
   0.1016720000000000    0.4165319999999990    0.9367400000000001 Se
   0.5826970000000000    0.0963900000000000    0.2311679999999990 Se
   0.0499880000000000    0.2500000000000000    0.1099510000000000 Se
   0.1214639999999990    0.4114100000000001    0.6185300000000000 Se
   0.6130180000000000    0.2500000000000000    0.7122820000000000 Se
   0.8785360000000000    0.9114100000000001    0.3814700000000000 Se
   0.3785360000000000    0.5885900000000001    0.1185300000000000 Se
   0.4173030000000000    0.9036100000000000    0.7688320000000000 Se
   0.0826969999999990    0.0963900000000000    0.2688320000000000 Se
   0.5826970000000000    0.4036100000000000    0.2311679999999990 Se
   0.3983279999999990    0.5834680000000000    0.4367400000000000 Se
   0.9500120000000000    0.7500000000000000    0.8900490000000000 Se
   0.3785360000000000    0.9114100000000001    0.1185300000000000 Se
   0.8785360000000000    0.5885900000000001    0.3814700000000000 Se
   0.9173030000000000    0.9036100000000000    0.7311679999999990 Se
   0.6214640000000000    0.4114100000000001    0.8814700000000001 Se
   0.4173030000000000    0.5963900000000001    0.7688320000000000 Se
   0.0139490000000000    0.2500000000000000    0.4680820000000000 Se
   0.8869819999999990    0.7500000000000000    0.2122820000000000 Se
   0.3869820000000000    0.7500000000000000    0.2877180000000000 Se
   0.6214640000000000    0.0885900000000000    0.8814700000000001 Se
   0.4860509999999990    0.7500000000000000    0.9680820000000000 Se
