Hg6 As2 S8 Cl2
1.0
   3.7948260000000000   -6.5728309999999999    0.0000000000000000
   3.7948260000000000    6.5728309999999999    0.0000000000000000
   0.0000000000000000    0.0000000000000000    9.6749069999999993
Hg As S Cl
6 2 8 2
direct
   0.5021890000000000    0.4978110000000000    0.7434620000000000 Hg
   0.4978110000000000    0.5021890000000000    0.2434619999999990 Hg
   0.4978110000000000    0.9956229999999990    0.2434619999999990 Hg
   0.0043770000000000    0.5021890000000000    0.2434619999999990 Hg
   0.9956229999999990    0.4978110000000000    0.7434620000000000 Hg
   0.5021890000000000    0.0043770000000000    0.7434620000000000 Hg
   0.0000000000000000    0.0000000000000000    0.7302029999999990 As
   0.0000000000000000    0.0000000000000000    0.2302030000000000 As
   0.6666670000000000    0.3333330000000000    0.6147520000000000 S
   0.8514300000000000    0.7028610000000000    0.3568030000000000 S
   0.7028610000000000    0.8514300000000000    0.8568030000000000 S
   0.8514300000000000    0.1485700000000000    0.3568030000000000 S
   0.1485700000000000    0.2971390000000000    0.8568030000000000 S
   0.3333330000000000    0.6666670000000000    0.1147519999999990 S
   0.2971390000000000    0.1485700000000000    0.3568030000000000 S
   0.1485700000000000    0.8514300000000000    0.8568030000000000 S
   0.3333330000000000    0.6666670000000000    0.5415500000000001 Cl
   0.6666670000000000    0.3333330000000000    0.0415500000000000 Cl
