Bi4 S6 O24
1.0
   3.3934962700000000    8.6596168200000001   -0.0617393600000000
  -3.3934962700000000    8.6596168200000001   -0.0617393600000000
   0.0000000000000000    1.7081669200000000    8.0723805399999993
Bi S O
4 6 24
direct
   0.5478804800000000    0.7524318300000000    0.4521862400000000 Bi
   0.2475681700000000    0.4521195200000000    0.0478137600000000 Bi
   0.4521195200000000    0.2475681700000000    0.5478137600000000 Bi
   0.7524318300000000    0.5478804800000000    0.9521862400000001 Bi
   0.0987596999999990    0.2782123600000000    0.3085328100000000 S
   0.7217876400000001    0.9012403000000000    0.1914671900000000 S
   0.9012403000000000    0.7217876400000001    0.6914671900000000 S
   0.2782123600000000    0.0987596999999990    0.8085328100000000 S
   0.5768040700000000    0.4231959300000000    0.2500000000000000 S
   0.4231959300000000    0.5768040700000000    0.7500000000000000 S
   0.9077068500000001    0.3952892999999990    0.4192904000000000 O
   0.6047106999999990    0.0922931500000000    0.0807095999999990 O
   0.0922931500000000    0.6047106999999990    0.5807095999999990 O
   0.3952892999999990    0.9077068500000001    0.9192904000000000 O
   0.2172988100000000    0.3255330200000000    0.3272886200000000 O
   0.6744669800000000    0.7827011900000000    0.1727113800000000 O
   0.7827011900000000    0.6744669800000000    0.6727113800000000 O
   0.3255330200000000    0.2172988100000000    0.8272886200000000 O
   0.0491155200000000    0.3467851700000000    0.1309152100000000 O
   0.6532148300000000    0.9508844800000000    0.3690847900000000 O
   0.9508844800000000    0.6532148300000000    0.8690847900000001 O
   0.3467851700000000    0.0491155200000000    0.6309152100000001 O
   0.2340275000000000    0.0499236000000000    0.3347038400000000 O
   0.9500763999999990    0.7659724999999999    0.1652961600000000 O
   0.7659724999999999    0.9500763999999990    0.6652961600000000 O
   0.0499236000000000    0.2340275000000000    0.8347038400000000 O
   0.5212049800000000    0.6189736000000000    0.2537041000000000 O
   0.3810264000000000    0.4787950200000000    0.2462958999999990 O
   0.4787950200000000    0.3810264000000000    0.7462959000000000 O
   0.6189736000000000    0.5212049800000000    0.7537041000000000 O
   0.6754390000000000    0.2830071200000000    0.4012251100000000 O
   0.7169928800000001    0.3245610000000000    0.0987748900000000 O
   0.3245610000000000    0.7169928800000001    0.5987748900000001 O
   0.2830071200000000    0.6754390000000000    0.9012251100000001 O
