K12 Bi28 S16 O96
1.0
   5.7519659999999995   14.7177650000000000    0.0000000000000000
  -5.7519659999999995   14.7177650000000000    0.0000000000000000
   0.0000000000000000   14.0577380000000005   14.8849440000000008
K Bi S O
12 28 16 96
direct
   0.8023200000000000    0.5596059999999990    0.9952780000000000 K
   0.4403940000000000    0.1976800000000000    0.5047220000000000 K
   0.1976800000000000    0.4403940000000000    0.0047220000000000 K
   0.5596059999999990    0.8023200000000000    0.4952780000000000 K
   0.1230380000000000    0.3770340000000000    0.2456070000000000 K
   0.6229660000000000    0.8769619999999990    0.2543930000000000 K
   0.8769619999999990    0.6229660000000000    0.7543930000000000 K
   0.3770340000000000    0.1230380000000000    0.7456070000000000 K
   0.0400750000000000    0.7741000000000000    0.1593689999999990 K
   0.2259000000000000    0.9599249999999990    0.3406309999999990 K
   0.9599249999999990    0.2259000000000000    0.8406310000000000 K
   0.7741000000000000    0.0400750000000000    0.6593690000000000 K
   0.1314519999999990    0.8685480000000000    0.2500000000000000 Bi
   0.8685480000000000    0.1314519999999990    0.7500000000000000 Bi
   0.6242400000000000    0.3757600000000000    0.2500000000000000 Bi
   0.3757600000000000    0.6242400000000000    0.7500000000000000 Bi
   0.2967760000000000    0.0367590000000000    0.0129470000000000 Bi
   0.9632409999999991    0.7032240000000000    0.4870529999999990 Bi
   0.7032240000000000    0.9632409999999991    0.9870530000000000 Bi
   0.0367590000000000    0.2967760000000000    0.5129469999999990 Bi
   0.2601660000000000    0.5130720000000000    0.3246440000000000 Bi
   0.4869279999999990    0.7398340000000000    0.1753559999999990 Bi
   0.7398340000000000    0.4869279999999990    0.6753560000000000 Bi
   0.5130720000000000    0.2601660000000000    0.8246439999999990 Bi
   0.5387360000000000    0.2955280000000000    0.1700519999999990 Bi
   0.7044720000000000    0.4612639999999990    0.3299479999999990 Bi
   0.4612639999999990    0.7044720000000000    0.8299479999999990 Bi
   0.2955280000000000    0.5387360000000000    0.6700520000000000 Bi
   0.4151160000000000    0.6565190000000000    0.0936600000000000 Bi
   0.3434810000000000    0.5848840000000000    0.4063400000000000 Bi
   0.5848840000000000    0.3434810000000000    0.9063400000000000 Bi
   0.6565190000000000    0.4151160000000000    0.5936600000000001 Bi
   0.9094460000000000    0.1654380000000000    0.0944970000000000 Bi
   0.8345619999999990    0.0905540000000000    0.4055030000000000 Bi
   0.0905540000000000    0.8345619999999990    0.9055029999999999 Bi
   0.1654380000000000    0.9094460000000000    0.5944969999999991 Bi
   0.7649980000000000    0.0077040000000000    0.3238169999999990 Bi
   0.9922960000000000    0.2350020000000000    0.1761829999999990 Bi
   0.2350020000000000    0.9922960000000000    0.6761830000000000 Bi
   0.0077040000000000    0.7649980000000000    0.8238169999999990 Bi
   0.3871460000000000    0.1490290000000000    0.3795870000000000 S
   0.8509709999999990    0.6128540000000000    0.1204129999999990 S
   0.6128540000000000    0.8509709999999990    0.6204130000000000 S
   0.1490290000000000    0.3871460000000000    0.8795870000000000 S
   0.3558880000000000    0.0963530000000000    0.1179009999999990 S
   0.9036470000000000    0.6441120000000000    0.3820989999999990 S
   0.6441120000000000    0.9036470000000000    0.8820990000000000 S
   0.0963530000000000    0.3558880000000000    0.6179009999999990 S
   0.2955550000000000    0.5290070000000000    0.0572460000000000 S
   0.4709930000000000    0.7044450000000000    0.4427540000000000 S
   0.7044450000000000    0.4709930000000000    0.9427540000000000 S
   0.5290070000000000    0.2955550000000000    0.5572460000000000 S
   0.7770530000000000    0.0432209999999990    0.0673120000000000 S
   0.9567789999999990    0.2229469999999990    0.4326879999999990 S
   0.2229469999999990    0.9567789999999990    0.9326880000000000 S
   0.0432209999999990    0.7770530000000000    0.5673119999999990 S
   0.4421009999999990    0.2339270000000000    0.3296150000000000 O
   0.7660730000000000    0.5578989999999990    0.1703849999999990 O
   0.5578989999999990    0.7660730000000000    0.6703850000000000 O
   0.2339270000000000    0.4421009999999990    0.8296150000000000 O
   0.4944130000000000    0.0310440000000000    0.3510020000000000 O
   0.9689559999999990    0.5055870000000000    0.1489980000000000 O
   0.5055870000000000    0.9689559999999990    0.6489980000000000 O
   0.0310440000000000    0.4944130000000000    0.8510019999999990 O
   0.3496440000000000    0.1157580000000000    0.4770270000000000 O
   0.8842420000000000    0.6503559999999990    0.0229730000000000 O
   0.6503559999999990    0.8842420000000000    0.5229730000000000 O
   0.1157580000000000    0.3496440000000000    0.9770270000000000 O
   0.2702239999999990    0.2308909999999990    0.3546559999999990 O
   0.7691089999999990    0.7297760000000000    0.1453440000000000 O
   0.7297760000000000    0.7691089999999990    0.6453439999999990 O
   0.2308909999999990    0.2702239999999990    0.8546560000000000 O
   0.2945040000000000    0.0426090000000000    0.1290440000000000 O
   0.9573910000000000    0.7054960000000000    0.3709560000000000 O
   0.7054960000000000    0.9573910000000000    0.8709560000000000 O
   0.0426090000000000    0.2945040000000000    0.6290439999999990 O
   0.2455190000000000    0.2087560000000000    0.1527500000000000 O
   0.7912439999999999    0.7544810000000000    0.3472500000000000 O
   0.7544810000000000    0.7912439999999999    0.8472500000000001 O
   0.2087560000000000    0.2455190000000000    0.6527500000000001 O
   0.4486549999999990    0.9867619999999990    0.1698170000000000 O
   0.0132380000000000    0.5513450000000000    0.3301830000000000 O
   0.5513450000000000    0.0132380000000000    0.8301830000000000 O
   0.9867619999999990    0.4486549999999990    0.6698170000000000 O
   0.4272789999999990    0.1387130000000000    0.0199540000000000 O
   0.8612869999999990    0.5727209999999990    0.4800460000000000 O
   0.5727209999999990    0.8612869999999990    0.9800460000000000 O
   0.1387130000000000    0.4272789999999990    0.5199540000000000 O
   0.1531750000000000    0.6155100000000000    0.0678909999999990 O
   0.3844900000000001    0.8468249999999991    0.4321089999999990 O
   0.8468249999999991    0.3844900000000001    0.9321090000000000 O
   0.6155100000000000    0.1531750000000000    0.5678909999999990 O
   0.3504990000000000    0.3904660000000000    0.0784479999999990 O
   0.6095340000000000    0.6495010000000000    0.4215520000000000 O
   0.6495010000000000    0.6095340000000000    0.9215519999999990 O
   0.3904660000000000    0.3504990000000000    0.5784480000000000 O
   0.3148630000000000    0.5352910000000000    0.1161229999999990 O
   0.4647090000000000    0.6851370000000000    0.3838769999999990 O
   0.6851370000000000    0.4647090000000000    0.8838769999999990 O
   0.5352910000000000    0.3148630000000000    0.6161230000000000 O
   0.3711520000000000    0.5744840000000000    0.9594860000000000 O
   0.4255160000000000    0.6288480000000000    0.5405139999999991 O
   0.6288480000000000    0.4255160000000000    0.0405140000000000 O
   0.5744840000000000    0.3711520000000000    0.4594860000000000 O
   0.6805040000000000    0.0455389999999990    0.0654080000000000 O
   0.9544610000000000    0.3194960000000000    0.4345920000000000 O
   0.3194960000000000    0.9544610000000000    0.9345920000000000 O
   0.0455389999999990    0.6805040000000000    0.5654080000000000 O
   0.9138339999999990    0.9345289999999991    0.0357790000000000 O
   0.0654710000000000    0.0861659999999990    0.4642210000000000 O
   0.0861659999999990    0.0654710000000000    0.9642210000000000 O
   0.9345289999999991    0.9138339999999990    0.5357790000000000 O
   0.7424539999999999    0.0194640000000000    0.1617000000000000 O
   0.9805360000000000    0.2575460000000000    0.3383000000000000 O
   0.2575460000000000    0.9805360000000000    0.8383000000000000 O
   0.0194640000000000    0.7424539999999999    0.6617000000000001 O
   0.7628210000000000    0.1729470000000000    0.0078990000000000 O
   0.8270529999999990    0.2371790000000000    0.4921009999999990 O
   0.2371790000000000    0.8270529999999990    0.9921009999999991 O
   0.1729470000000000    0.7628210000000000    0.5078990000000000 O
   0.4062980000000000    0.4453260000000000    0.3628019999999990 O
   0.5546740000000000    0.5937020000000000    0.1371980000000000 O
   0.5937020000000000    0.5546740000000000    0.6371979999999990 O
   0.4453260000000000    0.4062980000000000    0.8628020000000000 O
   0.2342090000000000    0.6933969999999990    0.2100050000000000 O
   0.3066029999999990    0.7657910000000000    0.2899950000000000 O
   0.7657910000000000    0.3066029999999990    0.7899950000000000 O
   0.6933969999999990    0.2342090000000000    0.7100050000000000 O
   0.3362690000000000    0.8445300000000001    0.1123769999999990 O
   0.1554700000000000    0.6637310000000000    0.3876230000000000 O
   0.6637310000000000    0.1554700000000000    0.8876229999999991 O
   0.8445300000000001    0.3362690000000000    0.6123769999999999 O
   0.9442919999999990    0.9830570000000000    0.2110650000000000 O
   0.0169430000000000    0.0557080000000000    0.2889350000000000 O
   0.0557080000000000    0.0169430000000000    0.7889349999999991 O
   0.9830570000000000    0.9442919999999990    0.7110649999999999 O
   0.6946420000000000    0.1570560000000000    0.3605819999999990 O
   0.8429439999999990    0.3053579999999990    0.1394180000000000 O
   0.3053579999999990    0.8429439999999990    0.6394179999999990 O
   0.1570560000000000    0.6946420000000000    0.8605820000000000 O
   0.4540760000000000    0.4532210000000000    0.2040500000000000 O
   0.5467790000000000    0.5459240000000000    0.2959500000000000 O
   0.5459240000000000    0.5467790000000000    0.7959500000000000 O
   0.4532210000000000    0.4540760000000000    0.7040500000000001 O
   0.6984180000000000    0.2051820000000000    0.2035570000000000 O
   0.7948179999999990    0.3015819999999990    0.2964430000000000 O
   0.3015819999999990    0.7948179999999990    0.7964430000000000 O
   0.2051820000000000    0.6984180000000000    0.7035570000000000 O
   0.0944629999999990    0.0975880000000000    0.1018400000000000 O
   0.9024120000000000    0.9055369999999990    0.3981600000000000 O
   0.9055369999999990    0.9024120000000000    0.8981600000000001 O
   0.0975880000000000    0.0944629999999990    0.6018400000000000 O
