Pr2 Mn3 Sb4 S12
1.0
   1.9520529999999989   10.0148039999999998    0.0000000000000000
  -1.9520529999999989   10.0148039999999998    0.0000000000000000
   0.0000000000000000    8.8598029999999994   12.0463889999999996
Pr Mn Sb S
2 3 4 12
direct
   0.2404579999999990    0.2404579999999990    0.8627750000000000 Pr
   0.7595419999999991    0.7595419999999991    0.1372249999999990 Pr
   0.1993039999999990    0.1993039999999990    0.6202719999999990 Mn
   0.8006960000000000    0.8006960000000000    0.3797280000000000 Mn
   0.0000000000000000    0.0000000000000000    0.0000000000000000 Mn
   0.1064369999999990    0.1064369999999990    0.4521270000000000 Sb
   0.8935630000000000    0.8935630000000000    0.5478729999999991 Sb
   0.4615410000000000    0.4615410000000000    0.8145439999999990 Sb
   0.5384590000000000    0.5384590000000000    0.1854559999999990 Sb
   0.0581760000000000    0.0581760000000000    0.8020820000000000 S
   0.9418240000000000    0.9418240000000000    0.1979179999999990 S
   0.5995659999999990    0.5995659999999990    0.9789559999999990 S
   0.4004339999999990    0.4004339999999990    0.0210440000000000 S
   0.8324769999999990    0.8324769999999990    0.8949020000000000 S
   0.1675230000000000    0.1675230000000000    0.1050980000000000 S
   0.4111660000000000    0.4111660000000000    0.6500450000000000 S
   0.5888340000000000    0.5888340000000000    0.3499549999999990 S
   0.2574289999999990    0.2574289999999990    0.2930970000000000 S
   0.7425710000000000    0.7425710000000000    0.7069029999999999 S
   0.3428170000000000    0.3428170000000000    0.4524380000000000 S
   0.6571830000000000    0.6571830000000000    0.5475620000000000 S
