Li12 Sb4 S12
1.0
   8.2957020000000004    0.0000000000000000    0.0000000000000000
   0.0000000000000000    8.2957020000000004    0.0000000000000000
   0.0000000000000000    0.0000000000000000    8.2957020000000004
Li Sb S
12 4 12
direct
   0.0190860000000000    0.0190860000000000    0.0190860000000000 Li
   0.2096269999999990    0.2903730000000000    0.7096270000000000 Li
   0.2150250000000000    0.7150250000000000    0.7849750000000000 Li
   0.2849750000000000    0.2849750000000000    0.2849750000000000 Li
   0.2903730000000000    0.7096270000000000    0.2096269999999990 Li
   0.4809139999999991    0.9809140000000000    0.5190859999999990 Li
   0.5190859999999990    0.4809139999999991    0.9809140000000000 Li
   0.7096270000000000    0.2096269999999990    0.2903730000000000 Li
   0.7150250000000000    0.7849750000000000    0.2150250000000000 Li
   0.7849750000000000    0.2150250000000000    0.7150250000000000 Li
   0.7903730000000000    0.7903730000000000    0.7903730000000000 Li
   0.9809140000000000    0.5190859999999990    0.4809139999999991 Li
   0.0391920000000000    0.9608080000000000    0.4608080000000000 Sb
   0.4608080000000000    0.0391920000000000    0.9608080000000000 Sb
   0.5391920000000000    0.5391920000000000    0.5391920000000000 Sb
   0.9608080000000000    0.4608080000000000    0.0391920000000000 Sb
   0.9984919999999990    0.2454200000000000    0.3833189999999990 S
   0.1166809999999990    0.0015080000000000    0.7454200000000001 S
   0.2454200000000000    0.3833189999999990    0.9984919999999990 S
   0.2545800000000000    0.6166809999999990    0.4984920000000000 S
   0.3833189999999990    0.9984919999999990    0.2454200000000000 S
   0.5015080000000000    0.7545800000000000    0.8833190000000000 S
   0.4984920000000000    0.2545800000000000    0.6166809999999990 S
   0.6166809999999990    0.4984920000000000    0.2545800000000000 S
   0.7454200000000001    0.1166809999999990    0.0015080000000000 S
   0.7545800000000000    0.8833190000000000    0.5015080000000000 S
   0.8833190000000000    0.5015080000000000    0.7545800000000000 S
   0.0015080000000000    0.7454200000000001    0.1166809999999990 S
