Cs12 Bi44 Se72
1.0
   0.0000000000000000   12.8330559300000004   -0.0000000000000000
   0.0000000000000000    0.0000000000000000   14.0621223600000000
  23.9596677500000013    0.0000000000000000    0.0000000000000000
Cs Bi Se
12 44 72
direct
   0.2500000000000000    0.5446122900000000    0.6290270900000000 Cs
   0.5855653500000000    0.5349229300000000    0.6318910100000000 Cs
   0.9144346500000000    0.5349229300000000    0.6318910100000000 Cs
   0.2500000000000000    0.9553877100000000    0.1290270900000000 Cs
   0.5855653500000000    0.9650770700000000    0.1318910100000000 Cs
   0.9144346500000000    0.9650770700000000    0.1318910100000000 Cs
   0.0855653500000000    0.4650770700000000    0.3681089900000000 Cs
   0.4144346500000000    0.4650770700000000    0.3681089900000000 Cs
   0.7500000000000000    0.4553877100000000    0.3709729100000000 Cs
   0.0855653500000000    0.0349229300000000    0.8681089900000000 Cs
   0.4144346500000000    0.0349229300000000    0.8681089900000000 Cs
   0.7500000000000000    0.0446122900000000    0.8709729100000000 Cs
   0.0853862700000000    0.6671790900000000    0.8271364999999991 Bi
   0.4146137300000000    0.6671790900000000    0.8271364999999991 Bi
   0.7500000000000000    0.6600424600000000    0.8296207300000000 Bi
   0.0853862700000000    0.8328209100000000    0.3271365000000000 Bi
   0.4146137300000000    0.8328209100000000    0.3271365000000000 Bi
   0.7500000000000000    0.8399575400000000    0.3296207300000000 Bi
   0.2500000000000000    0.3399575400000000    0.1703792700000000 Bi
   0.5853862700000000    0.3328209100000000    0.1728635000000000 Bi
   0.9146137300000000    0.3328209100000000    0.1728635000000000 Bi
   0.2500000000000000    0.1600424600000000    0.6703792700000000 Bi
   0.5853862700000000    0.1671790900000000    0.6728634999999999 Bi
   0.9146137300000000    0.1671790900000000    0.6728634999999999 Bi
   0.0808473600000000    0.2740690400000000    0.5295673700000000 Bi
   0.4191526400000000    0.2740690400000000    0.5295673700000000 Bi
   0.7500000000000000    0.2639011200000000    0.5253026900000000 Bi
   0.0808473600000000    0.2259309600000000    0.0295673700000000 Bi
   0.4191526400000000    0.2259309600000000    0.0295673700000000 Bi
   0.7500000000000000    0.2360988800000000    0.0253026900000000 Bi
   0.2500000000000000    0.7360988800000000    0.4746973100000000 Bi
   0.5808473600000000    0.7259309600000000    0.4704326300000000 Bi
   0.9191526400000000    0.7259309600000000    0.4704326300000000 Bi
   0.2500000000000000    0.7639011200000000    0.9746973100000000 Bi
   0.5808473600000000    0.7740690400000000    0.9704326300000000 Bi
   0.9191526400000000    0.7740690400000000    0.9704326300000000 Bi
   0.0919681300000000    0.9504407700000000    0.5777855900000000 Bi
   0.4080318700000000    0.9504407700000000    0.5777855900000000 Bi
   0.7500000000000000    0.9668806400000001    0.5767139200000000 Bi
   0.0919681300000000    0.5495592300000001    0.0777855900000000 Bi
   0.4080318700000000    0.5495592300000001    0.0777855900000000 Bi
   0.7500000000000000    0.5331193600000000    0.0767139200000000 Bi
   0.2500000000000000    0.0331193600000000    0.4232860800000000 Bi
   0.5919681300000000    0.0495592300000000    0.4222144100000000 Bi
   0.9080318700000001    0.0495592300000000    0.4222144100000000 Bi
   0.2500000000000000    0.4668806400000000    0.9232860800000000 Bi
   0.5919681300000000    0.4504407700000000    0.9222144100000000 Bi
   0.9080318700000001    0.4504407700000000    0.9222144100000000 Bi
   0.5699760400000000    0.8401639600000000    0.7116708700000001 Bi
   0.9300239600000000    0.8401639600000000    0.7116708700000001 Bi
   0.5699760400000000    0.6598360400000001    0.2116708700000000 Bi
   0.9300239600000000    0.6598360400000001    0.2116708700000000 Bi
   0.0699760400000000    0.1598360400000000    0.2883291300000000 Bi
   0.4300239600000000    0.1598360400000000    0.2883291300000000 Bi
   0.0699760400000000    0.3401639600000000    0.7883291300000000 Bi
   0.4300239600000000    0.3401639600000000    0.7883291300000000 Bi
   0.2500000000000000    0.8151228800000000    0.5960530400000000 Se
   0.5850422100000000    0.8207892900000000    0.5973988500000000 Se
   0.9149577900000000    0.8207892900000000    0.5973988500000000 Se
   0.2500000000000000    0.6848771200000000    0.0960530400000000 Se
   0.5850422100000000    0.6792107100000000    0.0973988500000000 Se
   0.9149577900000000    0.6792107100000000    0.0973988500000000 Se
   0.0850422100000000    0.1792107100000000    0.4026011500000000 Se
   0.4149577900000000    0.1792107100000000    0.4026011500000000 Se
   0.7500000000000000    0.1848771200000000    0.4039469600000000 Se
   0.0850422100000000    0.3207892900000000    0.9026011500000001 Se
   0.4149577900000000    0.3207892900000000    0.9026011500000001 Se
   0.7500000000000000    0.3151228800000000    0.9039469600000000 Se
   0.0837399100000000    0.7095409600000000    0.7130364400000000 Se
   0.4162600900000000    0.7095409600000000    0.7130364400000000 Se
   0.7500000000000000    0.7149458700000000    0.7149783700000000 Se
   0.0837399100000000    0.7904590400000000    0.2130364400000000 Se
   0.4162600900000000    0.7904590400000000    0.2130364400000000 Se
   0.7500000000000000    0.7850541300000000    0.2149783700000000 Se
   0.2500000000000000    0.2850541300000000    0.2850216300000000 Se
   0.5837399100000000    0.2904590400000000    0.2869635600000000 Se
   0.9162600900000000    0.2904590400000000    0.2869635600000000 Se
   0.2500000000000000    0.2149458700000000    0.7850216300000000 Se
   0.5837399100000000    0.2095409600000000    0.7869635600000000 Se
   0.9162600900000000    0.2095409600000000    0.7869635600000000 Se
   0.2500000000000000    0.8053179800000000    0.8566547000000000 Se
   0.5879863100000000    0.8055797300000000    0.8522111200000000 Se
   0.9120136900000000    0.8055797300000000    0.8522111200000000 Se
   0.2500000000000000    0.6946820200000000    0.3566547000000000 Se
   0.5879863100000000    0.6944202700000001    0.3522111200000000 Se
   0.9120136900000000    0.6944202700000001    0.3522111200000000 Se
   0.0879863100000000    0.1944202700000000    0.1477888800000000 Se
   0.4120136900000000    0.1944202700000000    0.1477888800000000 Se
   0.7500000000000000    0.1946820200000000    0.1433452999999990 Se
   0.0879863100000000    0.3055797300000000    0.6477888800000000 Se
   0.4120136900000000    0.3055797300000000    0.6477888800000000 Se
   0.7500000000000000    0.3053179800000000    0.6433453000000000 Se
   0.2500000000000000    0.1001982100000000    0.5472402800000000 Se
   0.5836414400000001    0.1040119400000000    0.5475740900000000 Se
   0.9163585600000000    0.1040119400000000    0.5475740900000000 Se
   0.2500000000000000    0.3998017900000000    0.0472402800000000 Se
   0.5836414400000001    0.3959880600000000    0.0475740900000000 Se
   0.9163585600000000    0.3959880600000000    0.0475740900000000 Se
   0.0836414400000000    0.8959880600000000    0.4524259100000000 Se
   0.4163585600000000    0.8959880600000000    0.4524259100000000 Se
   0.7500000000000000    0.8998017900000000    0.4527597200000000 Se
   0.0836414400000000    0.6040119400000000    0.9524259100000000 Se
   0.4163585600000000    0.6040119400000000    0.9524259100000000 Se
   0.7500000000000000    0.6001982100000001    0.9527597200000000 Se
   0.0808138700000000    0.6088248100000000    0.4982775500000000 Se
   0.4191861300000000    0.6088248100000000    0.4982775500000000 Se
   0.7500000000000000    0.6081713100000000    0.4975092500000000 Se
   0.0808138700000000    0.8911751900000000    0.9982775500000001 Se
   0.4191861300000000    0.8911751900000000    0.9982775500000001 Se
   0.7500000000000000    0.8918286900000000    0.9975092500000000 Se
   0.2500000000000000    0.3918286900000000    0.5024907500000000 Se
   0.5808138700000001    0.3911751900000000    0.5017224500000000 Se
   0.9191861300000000    0.3911751900000000    0.5017224500000000 Se
   0.2500000000000000    0.1081713100000000    0.0024907500000000 Se
   0.5808138700000001    0.1088248100000000    0.0017224500000000 Se
   0.9191861300000000    0.1088248100000000    0.0017224500000000 Se
   0.0784872900000000    0.0166074800000000    0.6912833100000000 Se
   0.4215127100000000    0.0166074800000000    0.6912833100000000 Se
   0.7500000000000000    0.0199137300000000    0.6927860900000000 Se
   0.0784872900000000    0.4833925200000000    0.1912833100000000 Se
   0.4215127100000000    0.4833925200000000    0.1912833100000000 Se
   0.7500000000000000    0.4800862700000000    0.1927860900000000 Se
   0.2500000000000000    0.9800862700000000    0.3072139100000000 Se
   0.5784872900000000    0.9833925200000000    0.3087166900000000 Se
   0.9215127100000000    0.9833925200000000    0.3087166900000000 Se
   0.2500000000000000    0.5199137300000000    0.8072139100000000 Se
   0.5784872900000000    0.5166074800000000    0.8087166900000000 Se
   0.9215127100000000    0.5166074800000000    0.8087166900000000 Se
