Bi8 P12 Se36
1.0
   7.5582692399999987    0.0000000000000000    0.0000000000000000
   0.0000000000000000    9.6469129299999992    0.0205186600000000
   0.0000000000000000    9.1530432499999996   21.4929460399999996
Bi P Se
8 12 36
direct
   0.8072740400000000    0.3898250200000000    0.8524343900000000 Bi
   0.3072740400000000    0.6101749800000000    0.6475656100000000 Bi
   0.1927259600000000    0.6101749800000000    0.1475656100000000 Bi
   0.6927259600000000    0.3898250200000000    0.3524343900000000 Bi
   0.9155647200000000    0.0687366600000000    0.1616892200000000 Bi
   0.4155647200000000    0.9312633400000000    0.3383107800000000 Bi
   0.0844352800000000    0.9312633400000000    0.8383107800000000 Bi
   0.5844352800000000    0.0687366600000000    0.6616892200000000 Bi
   0.9441660400000000    0.5738346500000000    0.9531948500000000 P
   0.4441660400000000    0.4261653500000000    0.5468051500000000 P
   0.0558339600000000    0.4261653500000000    0.0468051500000000 P
   0.5558339600000000    0.5738346500000000    0.4531948500000000 P
   0.0615580900000000    0.9221632000000000    0.6465188100000000 P
   0.5615580900000000    0.0778368000000000    0.8534811900000000 P
   0.9384419100000000    0.0778368000000000    0.3534811900000000 P
   0.4384419100000000    0.9221632000000000    0.1465188100000000 P
   0.1574535700000000    0.2464603100000000    0.3133212600000000 P
   0.6574535700000000    0.7535396900000000    0.1866787400000000 P
   0.8425464300000001    0.7535396900000000    0.6866787400000001 P
   0.3425464300000000    0.2464603100000000    0.8133212600000000 P
   0.7426029100000000    0.7772377500000001    0.7696558000000000 Se
   0.0442801300000000    0.4691753999999990    0.2966443800000000 Se
   0.4557198700000000    0.4691753999999990    0.7966443800000000 Se
   0.9557198700000000    0.5308246000000000    0.7033556200000001 Se
   0.8581583200000000    0.8384961400000001    0.1116259700000000 Se
   0.3581583200000000    0.1615038600000000    0.3883740300000000 Se
   0.1418416800000000    0.1615038600000000    0.8883740300000000 Se
   0.6418416800000000    0.8384961400000001    0.6116259700000000 Se
   0.2378493500000000    0.8497667000000000    0.2197718500000000 Se
   0.7378493500000001    0.1502333000000000    0.2802281500000000 Se
   0.7621506500000000    0.1502333000000000    0.7802281500000000 Se
   0.5442801300000000    0.5308246000000000    0.2033556200000000 Se
   0.5548698000000000    0.1455774200000000    0.1217269000000000 Se
   0.0548697999999990    0.8544225800000000    0.3782731000000000 Se
   0.4451302000000000    0.8544225800000000    0.8782730999999990 Se
   0.9451301999999990    0.1455774200000000    0.6217269000000000 Se
   0.3483724900000000    0.8772269300000001    0.0658515300000000 Se
   0.8483724900000000    0.1227730700000000    0.4341484700000000 Se
   0.6516275100000000    0.1227730700000000    0.9341484700000000 Se
   0.1516275100000000    0.8772269300000001    0.5658515300000000 Se
   0.5866937600000001    0.7978761000000000    0.4555003900000000 Se
   0.0866937600000000    0.2021239000000000    0.0444996100000000 Se
   0.4133062400000000    0.2021239000000000    0.5444996100000000 Se
   0.9133062400000000    0.7978761000000000    0.9555003900000000 Se
   0.3685983500000000    0.5715591600000001    0.3829418800000000 Se
   0.8685983500000000    0.4284408400000000    0.1170581200000000 Se
   0.6314016500000000    0.4284408400000000    0.6170581200000000 Se
   0.1314016500000000    0.5715591600000001    0.8829418800000001 Se
   0.8112841500000000    0.4701570700000000    0.4481794000000000 Se
   0.3112841500000000    0.5298429300000000    0.0518205999999990 Se
   0.1887158500000000    0.5298429300000000    0.5518206000000000 Se
   0.6887158500000000    0.4701570700000000    0.9481794000000000 Se
   0.2573970900000000    0.2227622500000000    0.2303442000000000 Se
   0.7573970900000000    0.7772377500000001    0.2696558000000000 Se
   0.2621506500000000    0.8497667000000000    0.7197718500000000 Se
   0.2426029100000000    0.2227622500000000    0.7303442000000000 Se
