Na12 As4 H88 S8 O52
1.0
   9.6869569999999996    0.0000000000000000    0.0000000000000000
   0.0000000000000000   12.6344510000000003    0.0000000000000000
   0.0000000000000000    0.0000000000000000   14.3267000000000007
Na As H S O
12 4 88 8 52
direct
   0.5045480000000000    0.7293290000000000    0.0955459999999990 Na
   0.9954520000000000    0.2293289999999990    0.4044540000000000 Na
   0.4954520000000000    0.2706710000000000    0.5955460000000000 Na
   0.0045480000000000    0.7706710000000000    0.9044540000000000 Na
   0.4954520000000000    0.2706710000000000    0.9044540000000000 Na
   0.0045480000000000    0.7706710000000000    0.5955460000000000 Na
   0.5045480000000000    0.7293290000000000    0.4044540000000000 Na
   0.9954520000000000    0.2293289999999990    0.0955459999999990 Na
   0.5000000000000000    0.5000000000000000    0.0000000000000000 Na
   0.0000000000000000    0.0000000000000000    0.5000000000000000 Na
   0.5000000000000000    0.5000000000000000    0.5000000000000000 Na
   0.0000000000000000    0.0000000000000000    0.0000000000000000 Na
   0.4628029999999990    0.0878180000000000    0.2500000000000000 As
   0.0371970000000000    0.5878180000000000    0.2500000000000000 As
   0.5371969999999990    0.9121819999999990    0.7500000000000000 As
   0.9628030000000000    0.4121820000000000    0.7500000000000000 As
   0.2851519999999990    0.5628890000000000    0.1440870000000000 H
   0.2148479999999990    0.0628890000000000    0.3559130000000000 H
   0.7148479999999990    0.4371109999999990    0.6440870000000000 H
   0.7851520000000000    0.9371109999999990    0.8559129999999990 H
   0.7148479999999990    0.4371109999999990    0.8559129999999990 H
   0.7851520000000000    0.9371109999999990    0.6440870000000000 H
   0.2851519999999990    0.5628890000000000    0.3559130000000000 H
   0.2148479999999990    0.0628890000000000    0.1440870000000000 H
   0.4263679999999990    0.5171890000000000    0.1804069999999990 H
   0.0736320000000000    0.0171890000000000    0.3195929999999990 H
   0.5736319999999990    0.4828110000000000    0.6804070000000000 H
   0.9263680000000000    0.9828110000000000    0.8195930000000000 H
   0.5736319999999990    0.4828110000000000    0.8195930000000000 H
   0.9263680000000000    0.9828110000000000    0.6804070000000000 H
   0.4263679999999990    0.5171890000000000    0.3195929999999990 H
   0.0736320000000000    0.0171890000000000    0.1804069999999990 H
   0.3092769999999990    0.6685890000000000    0.5500600000000000 H
   0.1907230000000000    0.1685890000000000    0.9499400000000001 H
   0.6907230000000000    0.3314110000000000    0.0500600000000000 H
   0.8092769999999990    0.8314110000000000    0.4499400000000001 H
   0.6907230000000000    0.3314110000000000    0.4499400000000001 H
   0.8092769999999990    0.8314110000000000    0.0500600000000000 H
   0.3092769999999990    0.6685890000000000    0.9499400000000001 H
   0.1907230000000000    0.1685890000000000    0.5500600000000000 H
   0.4382990000000000    0.6977669999999990    0.6145400000000001 H
   0.0617010000000000    0.1977670000000000    0.8854600000000000 H
   0.5617010000000000    0.3022330000000000    0.1145400000000000 H
   0.9382990000000000    0.8022330000000000    0.3854600000000000 H
   0.5617010000000000    0.3022330000000000    0.3854600000000000 H
   0.9382990000000000    0.8022330000000000    0.1145400000000000 H
   0.4382990000000000    0.6977669999999990    0.8854600000000000 H
   0.0617010000000000    0.1977670000000000    0.6145400000000001 H
   0.3825300000000000    0.0633680000000000    0.5638590000000000 H
   0.1174700000000000    0.5633680000000000    0.9361410000000000 H
   0.6174700000000001    0.9366319999999990    0.0638590000000000 H
   0.8825300000000000    0.4366319999999990    0.4361410000000000 H
   0.6174700000000001    0.9366319999999990    0.4361410000000000 H
   0.8825300000000000    0.4366319999999990    0.0638590000000000 H
   0.3825300000000000    0.0633680000000000    0.9361410000000000 H
   0.1174700000000000    0.5633680000000000    0.5638590000000000 H
   0.3903290000000000    0.0980689999999990    0.4582859999999990 H
   0.1096709999999990    0.5980690000000000    0.0417140000000000 H
   0.6096710000000000    0.9019309999999990    0.9582860000000000 H
   0.8903289999999990    0.4019310000000000    0.5417140000000000 H
   0.6096710000000000    0.9019309999999990    0.5417140000000000 H
   0.8903289999999990    0.4019310000000000    0.9582860000000000 H
   0.3903290000000000    0.0980689999999990    0.0417140000000000 H
   0.1096709999999990    0.5980690000000000    0.4582859999999990 H
   0.2348519999999990    0.8126059999999991    0.1591890000000000 H
   0.2651480000000000    0.3126060000000000    0.3408110000000000 H
   0.7651479999999991    0.1873940000000000    0.6591890000000000 H
   0.7348519999999999    0.6873939999999999    0.8408110000000000 H
   0.7651479999999991    0.1873940000000000    0.8408110000000000 H
   0.7348519999999999    0.6873939999999999    0.6591890000000000 H
   0.2348519999999990    0.8126059999999991    0.3408110000000000 H
   0.2651480000000000    0.3126060000000000    0.1591890000000000 H
   0.3369580000000000    0.9108449999999990    0.1399090000000000 H
   0.1630420000000000    0.4108449999999990    0.3600910000000000 H
   0.6630420000000000    0.0891550000000000    0.6399090000000000 H
   0.8369580000000000    0.5891550000000000    0.8600909999999991 H
   0.6630420000000000    0.0891550000000000    0.8600909999999991 H
   0.8369580000000000    0.5891550000000000    0.6399090000000000 H
   0.3369580000000000    0.9108449999999990    0.3600910000000000 H
   0.1630420000000000    0.4108449999999990    0.1399090000000000 H
   0.2586730000000000    0.3676560000000000    0.4934210000000000 H
   0.2413269999999990    0.8676560000000000    0.0065790000000000 H
   0.7413270000000000    0.6323440000000000    0.9934210000000000 H
   0.7586729999999990    0.1323440000000000    0.5065790000000000 H
   0.7413270000000000    0.6323440000000000    0.5065790000000000 H
   0.7586729999999990    0.1323440000000000    0.9934210000000000 H
   0.2586730000000000    0.3676560000000000    0.0065790000000000 H
   0.2413269999999990    0.8676560000000000    0.4934210000000000 H
   0.2480030000000000    0.4088770000000000    0.5996929999999990 H
   0.2519969999999990    0.9088769999999990    0.9003070000000000 H
   0.7519969999999990    0.5911230000000000    0.0996929999999990 H
   0.7480030000000000    0.0911230000000000    0.4003069999999990 H
   0.7519969999999990    0.5911230000000000    0.4003069999999990 H
   0.7480030000000000    0.0911230000000000    0.0996929999999990 H
   0.2480030000000000    0.4088770000000000    0.9003070000000000 H
   0.2519969999999990    0.9088769999999990    0.5996929999999990 H
   0.3437040000000000    0.1689020000000000    0.7500000000000000 H
   0.1562960000000000    0.6689020000000000    0.7500000000000000 H
   0.6562960000000000    0.8310980000000000    0.2500000000000000 H
   0.8437040000000000    0.3310980000000000    0.2500000000000000 H
   0.2929259999999990    0.2880310000000000    0.7500000000000000 H
   0.2070739999999990    0.7880309999999990    0.7500000000000000 H
   0.7070740000000000    0.7119690000000000    0.2500000000000000 H
   0.7929259999999990    0.2119690000000000    0.2500000000000000 H
   0.4580820000000000    0.2613850000000000    0.2500000000000000 S
   0.0419180000000000    0.7613850000000000    0.2500000000000000 S
   0.5419180000000000    0.7386150000000000    0.7500000000000000 S
   0.9580820000000000    0.2386150000000000    0.7500000000000000 S
   0.8258700000000001    0.5275759999999990    0.2500000000000000 S
   0.6741300000000000    0.0275760000000000    0.2500000000000000 S
   0.1741300000000000    0.4724239999999990    0.7500000000000000 S
   0.3258700000000000    0.9724240000000000    0.7500000000000000 S
   0.3781009999999990    0.0400520000000000    0.1518440000000000 O
   0.1218990000000000    0.5400520000000000    0.3481559999999990 O
   0.6218990000000000    0.9599479999999990    0.6518440000000000 O
   0.8781009999999990    0.4599479999999990    0.8481559999999990 O
   0.6218990000000000    0.9599479999999990    0.8481559999999990 O
   0.8781009999999990    0.4599479999999990    0.6518440000000000 O
   0.3781009999999990    0.0400520000000000    0.3481559999999990 O
   0.1218990000000000    0.5400520000000000    0.1518440000000000 O
   0.3895349999999990    0.5665279999999990    0.1349769999999990 O
   0.1104650000000000    0.0665280000000000    0.3650230000000000 O
   0.6104649999999990    0.4334719999999990    0.6349770000000000 O
   0.8895350000000000    0.9334720000000000    0.8650230000000000 O
   0.6104649999999990    0.4334719999999990    0.8650230000000000 O
   0.8895350000000000    0.9334720000000000    0.6349770000000000 O
   0.3895349999999990    0.5665279999999990    0.3650230000000000 O
   0.1104650000000000    0.0665280000000000    0.1349769999999990 O
   0.4109800000000000    0.6676569999999999    0.5536630000000000 O
   0.0890200000000000    0.1676570000000000    0.9463370000000000 O
   0.5890200000000001    0.3323430000000000    0.0536629999999990 O
   0.9109800000000001    0.8323429999999991    0.4463370000000000 O
   0.5890200000000001    0.3323430000000000    0.4463370000000000 O
   0.9109800000000001    0.8323429999999991    0.0536629999999990 O
   0.4109800000000000    0.6676569999999999    0.9463370000000000 O
   0.0890200000000000    0.1676570000000000    0.5536630000000000 O
   0.3786819999999990    0.1255350000000000    0.5236280000000000 O
   0.1213180000000000    0.6255350000000000    0.9763719999999991 O
   0.6213179999999990    0.8744649999999990    0.0236280000000000 O
   0.8786820000000000    0.3744650000000000    0.4763719999999990 O
   0.6213179999999990    0.8744649999999990    0.4763719999999990 O
   0.8786820000000000    0.3744650000000000    0.0236280000000000 O
   0.3786819999999990    0.1255350000000000    0.9763719999999991 O
   0.1213180000000000    0.6255350000000000    0.5236280000000000 O
   0.3087920000000000    0.8384090000000000    0.1176639999999990 O
   0.1912080000000000    0.3384089999999990    0.3823360000000000 O
   0.6912079999999990    0.1615909999999990    0.6176640000000000 O
   0.8087920000000000    0.6615909999999990    0.8823360000000000 O
   0.6912079999999990    0.1615909999999990    0.8823360000000000 O
   0.8087920000000000    0.6615909999999990    0.6176640000000000 O
   0.3087920000000000    0.8384090000000000    0.3823360000000000 O
   0.1912080000000000    0.3384089999999990    0.1176639999999990 O
   0.3123720000000000    0.3884849999999990    0.5498029999999990 O
   0.1876280000000000    0.8884850000000000    0.9501970000000000 O
   0.6876280000000000    0.6115149999999990    0.0498030000000000 O
   0.8123720000000000    0.1115149999999990    0.4501969999999990 O
   0.6876280000000000    0.6115149999999990    0.4501969999999990 O
   0.8123720000000000    0.1115149999999990    0.0498030000000000 O
   0.3123720000000000    0.3884849999999990    0.9501970000000000 O
   0.1876280000000000    0.8884850000000000    0.5498029999999990 O
   0.6241460000000000    0.7570549999999990    0.2500000000000000 O
   0.8758539999999990    0.2570550000000000    0.2500000000000000 O
   0.3758539999999990    0.2429450000000000    0.7500000000000000 O
   0.1241459999999990    0.7429450000000000    0.7500000000000000 O
