Tl4 As20 S32
1.0
   8.1564019999999999    0.0000000000000000    0.0000000000000000
   0.0000000000000000   11.3608849999999997    0.0000000000000000
   0.0000000000000000    0.4444829999999990   15.9816249999999993
Tl As S
4 20 32
direct
   0.6649379999999990    0.6636609999999999    0.2850050000000000 Tl
   0.1649380000000000    0.8363389999999991    0.7149949999999990 Tl
   0.3350619999999990    0.3363390000000000    0.7149949999999990 Tl
   0.8350620000000000    0.1636610000000000    0.2850050000000000 Tl
   0.7212090000000000    0.6380950000000000    0.8893840000000000 As
   0.2212090000000000    0.8619049999999990    0.1106159999999990 As
   0.2787910000000000    0.3619050000000000    0.1106159999999990 As
   0.7787910000000000    0.1380950000000000    0.8893840000000000 As
   0.6202160000000000    0.6084269999999991    0.5768360000000000 As
   0.1202159999999990    0.8915729999999999    0.4231640000000000 As
   0.3797840000000000    0.3915730000000000    0.4231640000000000 As
   0.8797840000000000    0.1084270000000000    0.5768360000000000 As
   0.1428330000000000    0.5528970000000000    0.2617900000000000 As
   0.6428330000000000    0.9471029999999990    0.7382100000000000 As
   0.8571670000000000    0.4471030000000000    0.7382100000000000 As
   0.3571669999999990    0.0528970000000000    0.2617900000000000 As
   0.9639620000000000    0.6201059999999990    0.0673500000000000 As
   0.4639620000000000    0.8798940000000000    0.9326500000000001 As
   0.0360380000000000    0.3798940000000000    0.9326500000000001 As
   0.5360380000000000    0.1201059999999990    0.0673500000000000 As
   0.1736349999999990    0.5890440000000000    0.5529689999999990 As
   0.6736350000000000    0.9109560000000000    0.4470309999999990 As
   0.8263650000000000    0.4109560000000000    0.4470309999999990 As
   0.3263649999999990    0.0890440000000000    0.5529689999999990 As
   0.6806150000000000    0.1327990000000000    0.6848290000000000 S
   0.1806150000000000    0.3672010000000000    0.3151710000000000 S
   0.3193850000000000    0.8672010000000000    0.3151710000000000 S
   0.8193849999999990    0.6327990000000000    0.6848290000000000 S
   0.8318369999999990    0.9485570000000000    0.8481710000000000 S
   0.3318370000000000    0.5514430000000000    0.1518290000000000 S
   0.1681629999999990    0.0514429999999990    0.1518290000000000 S
   0.6681630000000000    0.4485570000000000    0.8481710000000000 S
   0.9566279999999990    0.7999210000000000    0.1299680000000000 S
   0.4566280000000000    0.7000790000000000    0.8700319999999990 S
   0.0433720000000000    0.2000789999999990    0.8700319999999990 S
   0.5433720000000000    0.2999210000000000    0.1299680000000000 S
   0.9162480000000000    0.4971910000000000    0.1825719999999990 S
   0.4162480000000000    0.0028090000000000    0.8174279999999990 S
   0.0837520000000000    0.5028090000000000    0.8174279999999990 S
   0.5837519999999990    0.9971909999999991    0.1825719999999990 S
   0.6918800000000001    0.6144300000000000    0.0326910000000000 S
   0.1918800000000000    0.8855700000000001    0.9673090000000000 S
   0.3081200000000000    0.3855700000000000    0.9673090000000000 S
   0.8081200000000001    0.1144300000000000    0.0326910000000000 S
   0.6096670000000000    0.4006740000000000    0.3401700000000000 S
   0.1096670000000000    0.0993260000000000    0.6598300000000000 S
   0.3903330000000000    0.5993260000000000    0.6598300000000000 S
   0.8903329999999990    0.9006740000000000    0.3401700000000000 S
   0.8857320000000000    0.5995039999999990    0.4300250000000000 S
   0.3857319999999990    0.9004960000000000    0.5699750000000000 S
   0.1142680000000000    0.4004959999999990    0.5699750000000000 S
   0.6142679999999990    0.0995040000000000    0.4300250000000000 S
   0.8573600000000001    0.9092079999999990    0.5620959999999990 S
   0.3573600000000000    0.5907920000000000    0.4379039999999990 S
   0.1426400000000000    0.0907920000000000    0.4379039999999990 S
   0.6426400000000001    0.4092079999999990    0.5620959999999990 S
