Ag2 Sb6 Pb2 S12
1.0
   0.0000000000000000    0.0000000000000000    4.2117030000000000
   6.5219259999999997    0.0000000000000000    2.1058520000000001
   0.0000000000000000   19.3507759999999998    0.0000000000000000
Ag Sb Pb S
2 6 2 12
direct
   0.5891540000000000    0.8216920000000000    0.1298389999999990 Ag
   0.4108460000000000    0.1783080000000000    0.6298389999999990 Ag
   0.8581780000000000    0.2836440000000000    0.0579210000000000 Sb
   0.1194190000000000    0.7611620000000000    0.9511039999999999 Sb
   0.8805809999999999    0.2388380000000000    0.4511040000000000 Sb
   0.1418220000000000    0.7163560000000000    0.5579210000000000 Sb
   0.3822609999999990    0.2354770000000000    0.8656969999999991 Sb
   0.6177389999999990    0.7645230000000000    0.3656970000000000 Sb
   0.6653829999999999    0.6692340000000000    0.7399770000000000 Pb
   0.3346170000000000    0.3307660000000000    0.2399770000000000 Pb
   0.9611810000000000    0.0776380000000000    0.1626129999999990 S
   0.0106240000000000    0.9787509999999990    0.8413109999999990 S
   0.9893759999999990    0.0212490000000000    0.3413110000000000 S
   0.0388190000000000    0.9223619999999991    0.6626130000000000 S
   0.6822030000000000    0.6355940000000000    0.2455060000000000 S
   0.3177970000000000    0.3644060000000000    0.7455060000000000 S
   0.7408890000000000    0.5182220000000000    0.8992869999999999 S
   0.2528610000000000    0.4942780000000000    0.0932230000000000 S
   0.7471390000000000    0.5057220000000000    0.5932229999999999 S
   0.2591110000000000    0.4817780000000000    0.3992870000000000 S
   0.5157020000000000    0.9685950000000000    0.0050200000000000 S
   0.4842979999999991    0.0314049999999990    0.5050200000000000 S
