Cu11 Sb4 S13
1.0
   7.1185179999999999    5.3604110000000000    0.0000000000000000
  -7.1185179999999999    5.3604110000000000    0.0000000000000000
   0.0000000000000000    5.3460739999999998    7.3633590000000000
Cu Sb S
11 4 13
direct
   0.7784829999999990    0.9974790000000000    0.2316129999999990 Cu
   0.7945369999999990    0.7945369999999990    0.9845849999999990 Cu
   0.2890570000000000    0.2890570000000000    0.3885860000000000 Cu
   0.9974790000000000    0.7784829999999990    0.2316129999999990 Cu
   0.2500440000000000    0.7445000000000001    0.4934929999999990 Cu
   0.7445000000000001    0.2500440000000000    0.4934929999999990 Cu
   0.2283170000000000    0.2283170000000000    0.9766420000000000 Cu
   0.4910589999999990    0.7453350000000000    0.7563519999999990 Cu
   0.7453350000000000    0.4910589999999990    0.7563519999999990 Cu
   0.2208909999999990    0.9956910000000000    0.7744100000000000 Cu
   0.9956910000000000    0.2208919999999990    0.7744100000000000 Cu
   0.5329630000000000    0.9964529999999990    0.0078820000000000 Sb
   0.4679290000000000    0.4679290000000000    0.5446920000000000 Sb
   0.9749570000000000    0.9749570000000000    0.4687240000000000 Sb
   0.9964529999999990    0.5329630000000000    0.0078820000000000 Sb
   0.2335330000000000    0.7485330000000000    0.2484180000000000 S
   0.7485330000000000    0.2335330000000000    0.2484180000000000 S
   0.5415949999999990    0.5415949999999990    0.2333660000000000 S
   0.0020940000000000    0.0020940000000000    0.0022280000000000 S
   0.5184600000000000    0.7779670000000000    0.4849360000000000 S
   0.7779670000000000    0.5184600000000000    0.4849360000000000 S
   0.9916879999999991    0.2333450000000000    0.5249830000000000 S
   0.2333450000000000    0.9916879999999991    0.5249830000000000 S
   0.2525590000000000    0.4764800000000000    0.9980930000000000 S
   0.4764800000000000    0.2525590000000000    0.9980930000000000 S
   0.0035100000000000    0.4855800000000001    0.7486590000000000 S
   0.4855800000000001    0.0035100000000000    0.7486590000000000 S
   0.7369610000000000    0.7369610000000000    0.7835000000000001 S
