Na12 Sb4 Se12
1.0
   8.9922391099999999   -0.0000000000000000    0.0000000000000000
   0.0000000000000000    8.9922391099999999   -0.0000000000000000
   0.0000000000000000    0.0000000000000000    8.9922391099999999
Na Sb Se
12 4 12
direct
   0.9183954500000000    0.4183954500000000    0.0816045500000000 Na
   0.4183954500000000    0.0816045500000000    0.9183954500000000 Na
   0.0816045500000000    0.9183954500000000    0.4183954500000000 Na
   0.5816045500000000    0.5816045500000000    0.5816045500000000 Na
   0.1776715200000000    0.6776715200000000    0.8223284800000000 Na
   0.6776715200000000    0.8223284800000000    0.1776715200000000 Na
   0.8223284800000000    0.1776715200000000    0.6776715200000000 Na
   0.3223284800000000    0.3223284800000000    0.3223284800000000 Na
   0.6863233200000000    0.1863233200000000    0.3136766800000000 Na
   0.1863233200000000    0.3136766800000000    0.6863233200000000 Na
   0.3136766800000000    0.6863233200000000    0.1863233200000000 Na
   0.8136766800000000    0.8136766800000000    0.8136766800000000 Na
   0.4633869800000000    0.9633869800000000    0.5366130200000000 Sb
   0.9633869800000000    0.5366130200000000    0.4633869800000000 Sb
   0.5366130200000000    0.4633869800000000    0.9633869800000000 Sb
   0.0366130200000000    0.0366130200000000    0.0366130200000000 Sb
   0.9989274400000000    0.7626671400000000    0.1140192900000000 Se
   0.8859807100000000    0.4989274400000000    0.7373328600000000 Se
   0.2626671400000000    0.3859807100000000    0.0010725600000000 Se
   0.4989274400000000    0.7373328600000000    0.8859807100000000 Se
   0.3859807100000000    0.0010725600000000    0.2626671400000000 Se
   0.7626671400000000    0.1140192900000000    0.9989274400000000 Se
   0.0010725600000000    0.2626671400000000    0.3859807100000000 Se
   0.1140192900000000    0.9989274400000000    0.7626671400000000 Se
   0.7373328600000000    0.8859807100000000    0.4989274400000000 Se
   0.5010725600000000    0.2373328600000000    0.6140192900000000 Se
   0.6140192900000000    0.5010725600000000    0.2373328600000000 Se
   0.2373328600000000    0.6140192900000000    0.5010725600000000 Se
