Ag12 Sb4 S12
1.0
  15.9672541599999995    0.0000000000000000    0.0000000000000000
   0.0000000000000000    6.2709424299999998   -0.0043397800000000
   0.0000000000000000    3.0591417700000001    6.1888588899999997
Ag Sb S
12 4 12
direct
   0.8100608700000000    0.7101386800000000    0.0695689000000000 Ag
   0.7428575800000000    0.3091556100000000    0.4776687600000000 Ag
   0.3100608700000000    0.7898613200000000    0.9304311000000000 Ag
   0.9009813500000000    0.4690661200000000    0.5918789600000001 Ag
   0.2428575800000000    0.1908443900000000    0.5223312400000000 Ag
   0.5990186500000000    0.9690661200000000    0.5918789600000001 Ag
   0.1899391300000000    0.2898613200000000    0.9304311000000000 Ag
   0.2571424200000000    0.6908443900000000    0.5223312400000000 Ag
   0.0990186500000000    0.5309338800000000    0.4081210400000000 Ag
   0.4009813500000000    0.0309338800000000    0.4081210400000000 Ag
   0.6899391300000001    0.2101386800000000    0.0695689000000000 Ag
   0.7571424200000000    0.8091556100000000    0.4776687600000000 Ag
   0.5514896300000001    0.6756927800000000    0.1959799800000000 Sb
   0.0514896300000000    0.8243072200000000    0.8040200200000001 Sb
   0.4485103700000000    0.3243072200000000    0.8040200200000001 Sb
   0.9485103700000000    0.1756927800000000    0.1959799800000000 Sb
   0.0561965400000000    0.2322407900000000    0.7786900000000001 S
   0.4438034600000000    0.7322407900000000    0.7786900000000001 S
   0.5561965400000000    0.2677592100000000    0.2213100000000000 S
   0.1674958100000000    0.6291109100000000    0.0523365500000000 S
   0.6359829600000000    0.5549583700000000    0.5336069700000000 S
   0.1359829600000000    0.9450416300000000    0.4663930300000000 S
   0.9438034600000000    0.7677592100000000    0.2213100000000000 S
   0.3640170400000000    0.4450416300000000    0.4663930300000000 S
   0.8640170400000000    0.0549583700000000    0.5336069700000000 S
   0.6674958100000000    0.8708890900000000    0.9476634500000001 S
   0.3325041900000000    0.1291109100000000    0.0523365500000000 S
   0.8325041900000000    0.3708890900000000    0.9476634500000001 S
