Cu12 Bi4 Te8 Cl4 O32
1.0
   6.4487829999999997    0.0000000000000000    0.0000000000000000
   0.0000000000000000   10.0240749999999998    0.0000000000000000
   0.0000000000000000    0.0000000000000000   14.5326939999999993
Cu Bi Te Cl O
12 4 8 4 32
direct
   0.1944759999999990    0.7500000000000000    0.6408459999999990 Cu
   0.0153409999999990    0.0124809999999990    0.7593320000000000 Cu
   0.3055239999999990    0.7500000000000000    0.1408460000000000 Cu
   0.9846590000000000    0.9875189999999990    0.2406680000000000 Cu
   0.4846589999999991    0.4875190000000000    0.2593320000000000 Cu
   0.6944760000000000    0.2500000000000000    0.8591540000000000 Cu
   0.0153409999999990    0.4875190000000000    0.7593320000000000 Cu
   0.8055240000000000    0.2500000000000000    0.3591540000000000 Cu
   0.4846589999999991    0.0124809999999990    0.2593320000000000 Cu
   0.5153409999999990    0.9875189999999990    0.7406680000000000 Cu
   0.9846590000000000    0.5124810000000000    0.2406680000000000 Cu
   0.5153409999999990    0.5124810000000000    0.7406680000000000 Cu
   0.7651789999999991    0.2500000000000000    0.6352550000000000 Bi
   0.2651790000000000    0.7500000000000000    0.8647450000000000 Bi
   0.2348210000000000    0.7500000000000000    0.3647450000000000 Bi
   0.7348209999999999    0.2500000000000000    0.1352550000000000 Bi
   0.7418870000000000    0.5632370000000000    0.9568500000000001 Te
   0.2581130000000000    0.0632370000000000    0.0431500000000000 Te
   0.2418870000000000    0.0632370000000000    0.5431500000000000 Te
   0.2418870000000000    0.4367629999999990    0.5431500000000000 Te
   0.7581129999999990    0.5632370000000000    0.4568500000000000 Te
   0.7581129999999990    0.9367630000000000    0.4568500000000000 Te
   0.2581130000000000    0.4367629999999990    0.0431500000000000 Te
   0.7418870000000000    0.9367630000000000    0.9568500000000001 Te
   0.7799250000000000    0.7500000000000000    0.6775230000000000 Cl
   0.2799250000000000    0.2500000000000000    0.8224770000000000 Cl
   0.7200750000000000    0.7500000000000000    0.1775230000000000 Cl
   0.2200750000000000    0.2500000000000000    0.3224769999999990 Cl
   0.0073570000000000    0.4416219999999990    0.1142779999999990 O
   0.9926429999999991    0.5583779999999990    0.8857220000000000 O
   0.7499490000000000    0.1135930000000000    0.7620900000000000 O
   0.5495490000000000    0.6024149999999990    0.8595929999999991 O
   0.7500509999999990    0.3864070000000000    0.2620900000000000 O
   0.0495489999999990    0.1024149999999990    0.6404069999999999 O
   0.1783860000000000    0.8792669999999990    0.5365980000000000 O
   0.4504510000000000    0.1024149999999990    0.1404070000000000 O
   0.9926429999999991    0.9416220000000000    0.8857220000000000 O
   0.4926430000000000    0.4416219999999990    0.6142780000000000 O
   0.0073570000000000    0.0583780000000000    0.1142779999999990 O
   0.2500509999999990    0.6135929999999991    0.2379100000000000 O
   0.3216140000000000    0.8792669999999990    0.0365980000000000 O
   0.2499489999999990    0.6135929999999991    0.7379100000000001 O
   0.2500509999999990    0.8864069999999999    0.2379100000000000 O
   0.3216140000000000    0.6207330000000000    0.0365980000000000 O
   0.8216140000000000    0.1207330000000000    0.4634020000000000 O
   0.2499489999999990    0.8864069999999999    0.7379100000000001 O
   0.1783860000000000    0.6207330000000000    0.5365980000000000 O
   0.5073569999999999    0.5583779999999990    0.3857220000000000 O
   0.5073569999999999    0.9416220000000000    0.3857220000000000 O
   0.8216140000000000    0.3792669999999990    0.4634020000000000 O
   0.0495489999999990    0.3975849999999990    0.6404069999999999 O
   0.6783859999999990    0.1207330000000000    0.9634020000000000 O
   0.9504509999999990    0.6024149999999990    0.3595930000000000 O
   0.6783859999999990    0.3792669999999990    0.9634020000000000 O
   0.4504510000000000    0.3975849999999990    0.1404070000000000 O
   0.7499490000000000    0.3864070000000000    0.7620900000000000 O
   0.7500509999999990    0.1135930000000000    0.2620900000000000 O
   0.4926430000000000    0.0583780000000000    0.6142780000000000 O
   0.5495490000000000    0.8975850000000000    0.8595929999999991 O
   0.9504509999999990    0.8975850000000000    0.3595930000000000 O
