Bi2 H12 C6 S12 N6
1.0
   6.2369190000000003    0.0000000000000000    0.0000000000000000
  -0.6245440000000000    8.5009390000000007    0.0000000000000000
  -1.1755610000000001   -2.9856419999999999   12.5292879999999993
Bi H C S N
2 12 6 12 6
direct
   0.9607910000000000    0.3580970000000000    0.8125380000000000 Bi
   0.0392090000000000    0.6419030000000000    0.1874620000000000 Bi
   0.4618250000000000    0.7511860000000000    0.6632990000000000 H
   0.5381750000000000    0.2488139999999990    0.3367010000000000 H
   0.6370450000000000    0.7078989999999999    0.7644320000000000 H
   0.3629549999999990    0.2921010000000000    0.2355680000000000 H
   0.6641159999999990    0.0380720000000000    0.0805370000000000 H
   0.3358839999999990    0.9619280000000000    0.9194629999999990 H
   0.9071200000000000    0.1311749999999990    0.1529200000000000 H
   0.0928800000000000    0.8688250000000000    0.8470800000000001 H
   0.6899040000000000    0.8626760000000000    0.5038130000000000 H
   0.3100960000000000    0.1373240000000000    0.4961870000000000 H
   0.9237690000000000    0.8025570000000000    0.5647559999999990 H
   0.0762310000000000    0.1974429999999990    0.4352439999999990 H
   0.3370050000000000    0.5812010000000000    0.7376410000000000 C
   0.6629950000000000    0.4187990000000000    0.2623590000000000 C
   0.8485380000000000    0.1774250000000000    0.0042870000000000 C
   0.1514619999999990    0.8225749999999999    0.9957130000000000 C
   0.8605579999999990    0.0376600000000000    0.6234410000000000 C
   0.1394419999999990    0.9623400000000001    0.3765590000000000 C
   0.3973400000000000    0.4781939999999991    0.8347760000000000 S
   0.6026600000000001    0.5218060000000000    0.1652239999999990 S
   0.6743230000000000    0.1377010000000000    0.8901600000000001 S
   0.3256770000000000    0.8622989999999990    0.1098400000000000 S
   0.0905800000000000    0.2979670000000000    0.0178639999999990 S
   0.9094200000000001    0.7020330000000000    0.9821360000000000 S
   0.6884779999999990    0.1817250000000000    0.6176630000000000 S
   0.3115219999999990    0.8182750000000000    0.3823370000000000 S
   0.0996050000000000    0.0805970000000000    0.7081219999999990 S
   0.9003949999999999    0.9194030000000000    0.2918779999999990 S
   0.0879860000000000    0.5545519999999990    0.6651049999999999 S
   0.9120140000000000    0.4454479999999990    0.3348950000000000 S
   0.4928010000000000    0.6842520000000000    0.7177810000000000 N
   0.5071990000000000    0.3157480000000000    0.2822190000000000 N
   0.8023009999999990    0.1128380000000000    0.0852840000000000 N
   0.1976989999999990    0.8871620000000000    0.9147160000000000 N
   0.8167970000000000    0.8870920000000000    0.5625410000000000 N
   0.1832030000000000    0.1129080000000000    0.4374590000000000 N
