V2 Cu24 As6 S32
1.0
   7.4791020000000001   -7.4892750000000001    0.0000000000000000
   7.4791020000000001    7.4892750000000001    0.0000000000000000
  -0.0203590000000000    0.0000000000000000   10.5842240000000007
V Cu As S
2 24 6 32
direct
   0.4997870000000000    0.4997870000000000    0.4997870000000000 V
   0.9997870000000000    0.9997870000000000    0.9997870000000000 V
   0.4992379999999990    0.4989889999999990    0.2411370000000000 Cu
   0.7570350000000000    0.5004189999999999    0.5006050000000000 Cu
   0.4989889999999990    0.2411370000000000    0.4992379999999990 Cu
   0.2411370000000000    0.4992379999999990    0.4989889999999990 Cu
   0.5006050000000000    0.7570350000000000    0.5004189999999999 Cu
   0.5004189999999999    0.5006050000000000    0.7570350000000000 Cu
   0.7411369999999990    0.9989889999999991    0.9992380000000000 Cu
   0.0006050000000000    0.0004190000000000    0.2570350000000000 Cu
   0.9992380000000000    0.7411369999999990    0.9989889999999991 Cu
   0.9989889999999991    0.9992380000000000    0.7411369999999990 Cu
   0.0004190000000000    0.2570350000000000    0.0006050000000000 Cu
   0.2570350000000000    0.0006050000000000    0.0004190000000000 Cu
   0.4992319999999991    0.0012070000000000    0.2514570000000000 Cu
   0.7514569999999990    0.5012070000000000    0.9992320000000000 Cu
   0.0012070000000000    0.2514570000000000    0.4992319999999991 Cu
   0.2514570000000000    0.4992319999999991    0.0012070000000000 Cu
   0.9992320000000000    0.7514569999999990    0.5012070000000000 Cu
   0.5012070000000000    0.9992320000000000    0.7514569999999990 Cu
   0.7505090000000000    0.2493969999999990    0.2493230000000000 Cu
   0.2493230000000000    0.7505090000000000    0.2493969999999990 Cu
   0.2493969999999990    0.2493230000000000    0.7505090000000000 Cu
   0.7493230000000000    0.7493970000000000    0.2505090000000000 Cu
   0.7493970000000000    0.2505090000000000    0.7493230000000000 Cu
   0.2505090000000000    0.7493230000000000    0.7493970000000000 Cu
   0.0018950000000000    0.4981450000000000    0.2539059999999990 As
   0.7539060000000000    0.9981449999999999    0.5018950000000000 As
   0.4981450000000000    0.2539059999999990    0.0018950000000000 As
   0.2539059999999990    0.0018950000000000    0.4981450000000000 As
   0.5018950000000000    0.7539060000000000    0.9981449999999999 As
   0.9981449999999999    0.5018950000000000    0.7539060000000000 As
   0.8723759999999990    0.3775360000000000    0.1281640000000000 S
   0.8723529999999990    0.1283320000000000    0.3765850000000000 S
   0.6222320000000000    0.1283750000000000    0.1275300000000000 S
   0.1275300000000000    0.6222320000000000    0.1283750000000000 S
   0.1281640000000000    0.8723759999999990    0.3775360000000000 S
   0.3765850000000000    0.8723529999999990    0.1283320000000000 S
   0.1283320000000000    0.3765850000000000    0.8723529999999990 S
   0.1283750000000000    0.1275300000000000    0.6222320000000000 S
   0.3775360000000000    0.1281640000000000    0.8723759999999990 S
   0.8729209999999999    0.6232519999999990    0.8682540000000000 S
   0.8682540000000000    0.8729209999999999    0.6232519999999990 S
   0.6232519999999990    0.8682540000000000    0.8729209999999999 S
   0.6281639999999999    0.8775360000000000    0.3723760000000000 S
   0.8765849999999999    0.6283320000000000    0.3723530000000000 S
   0.6275300000000000    0.6283750000000000    0.1222320000000000 S
   0.6283750000000000    0.1222320000000000    0.6275300000000000 S
   0.8775360000000000    0.3723760000000000    0.6281639999999999 S
   0.6283320000000000    0.3723530000000000    0.8765849999999999 S
   0.3723530000000000    0.8765849999999999    0.6283320000000000 S
   0.1222320000000000    0.6275300000000000    0.6283750000000000 S
   0.3723760000000000    0.6281639999999999    0.8775360000000000 S
   0.3682539999999990    0.1232520000000000    0.3729210000000000 S
   0.1232520000000000    0.3729210000000000    0.3682539999999990 S
   0.3729210000000000    0.3682539999999990    0.1232520000000000 S
   0.6209540000000000    0.3785730000000000    0.3788769999999990 S
   0.3788769999999990    0.6209540000000000    0.3785730000000000 S
   0.3785730000000000    0.3788769999999990    0.6209540000000000 S
   0.6201070000000000    0.6201070000000000    0.6201070000000000 S
   0.8788769999999990    0.8785729999999990    0.1209539999999990 S
   0.8785729999999990    0.1209539999999990    0.8788769999999990 S
   0.1209539999999990    0.8788769999999990    0.8785729999999990 S
   0.1201069999999990    0.1201069999999990    0.1201069999999990 S
