Rb4 Sb16 S28 O4
1.0
  26.8237540000000010    0.0000000000000000    0.0000000000000000
   0.0000000000000000    7.5205240000000000    0.0000000000000000
   0.0000000000000000    6.3006950000000002    7.7588270000000001
Rb Sb S O
4 16 28 4
direct
   0.5670109999999990    0.6891750000000000    0.3490379999999990 Rb
   0.9329890000000000    0.6891750000000000    0.8490380000000000 Rb
   0.4329889999999990    0.3108249999999990    0.6509619999999990 Rb
   0.0670110000000000    0.3108249999999990    0.1509619999999990 Rb
   0.6788330000000000    0.1970240000000000    0.4027130000000000 Sb
   0.8211670000000000    0.1970240000000000    0.9027130000000000 Sb
   0.3211670000000000    0.8029759999999990    0.5972870000000000 Sb
   0.1788330000000000    0.8029759999999990    0.0972870000000000 Sb
   0.6770539999999990    0.1919229999999990    0.7965470000000000 Sb
   0.8229460000000000    0.1919229999999990    0.2965470000000000 Sb
   0.3229460000000000    0.8080769999999990    0.2034530000000000 Sb
   0.1770540000000000    0.8080769999999990    0.7034530000000000 Sb
   0.6161010000000000    0.4660000000000000    0.9678329999999991 Sb
   0.8838990000000000    0.4660000000000000    0.4678330000000000 Sb
   0.3838990000000000    0.5340000000000000    0.0321670000000000 Sb
   0.1161010000000000    0.5340000000000000    0.5321669999999999 Sb
   0.7432789999999990    0.6611319999999991    0.3828930000000000 Sb
   0.7567210000000000    0.6611319999999991    0.8828929999999990 Sb
   0.2567210000000000    0.3388680000000000    0.6171070000000000 Sb
   0.2432790000000000    0.3388680000000000    0.1171069999999990 Sb
   0.5201740000000000    0.6274280000000000    0.8647830000000000 S
   0.9798260000000000    0.6274280000000000    0.3647829999999990 S
   0.4798260000000000    0.3725719999999990    0.1352170000000000 S
   0.0201739999999990    0.3725719999999990    0.6352169999999990 S
   0.5952080000000000    0.1935700000000000    0.9205280000000000 S
   0.9047919999999990    0.1935700000000000    0.4205279999999990 S
   0.4047920000000000    0.8064300000000001    0.0794720000000000 S
   0.0952080000000000    0.8064300000000001    0.5794720000000000 S
   0.7686839999999990    0.2617490000000000    0.5705770000000000 S
   0.7313160000000000    0.2617490000000000    0.0705770000000000 S
   0.2313160000000000    0.7382510000000000    0.4294230000000000 S
   0.2686840000000000    0.7382510000000000    0.9294230000000000 S
   0.6783890000000000    0.6226309999999990    0.5819170000000000 S
   0.8216110000000000    0.6226309999999990    0.0819169999999990 S
   0.3216110000000000    0.3773690000000000    0.4180830000000000 S
   0.1783890000000000    0.3773690000000000    0.9180830000000000 S
   0.5963660000000000    0.2129260000000000    0.2747739999999990 S
   0.9036339999999990    0.2129260000000000    0.7747740000000000 S
   0.4036340000000000    0.7870739999999991    0.7252259999999990 S
   0.0963660000000000    0.7870739999999991    0.2252259999999990 S
   0.6812700000000000    0.6270760000000000    0.2108479999999990 S
   0.8187300000000001    0.6270760000000000    0.7108479999999990 S
   0.3187300000000000    0.3729240000000000    0.7891520000000000 S
   0.1812700000000000    0.3729240000000000    0.2891519999999990 S
   0.6222430000000000    0.1229590000000000    0.6325609999999990 S
   0.8777570000000000    0.1229590000000000    0.1325609999999990 S
   0.3777570000000000    0.8770410000000000    0.3674389999999990 S
   0.1222429999999990    0.8770410000000000    0.8674390000000000 S
   0.5069540000000000    0.5613850000000000    0.7534700000000001 O
   0.9930460000000000    0.5613850000000000    0.2534700000000000 O
   0.4930460000000000    0.4386150000000000    0.2465300000000000 O
   0.0069540000000000    0.4386150000000000    0.7465300000000000 O
