Rb4 Sb12 Se20
1.0
   0.0000000000000000    4.0838290600000002    0.0000000000000000
   0.0000000000000000    0.0000000000000000   12.4421813500000003
  22.0718465899999998    0.0000000000000000    0.0000000000000000
Rb Sb Se
4 12 20
direct
   0.2500000000000000    0.6726652200000001    0.5936876999999990 Rb
   0.2500000000000000    0.8273347800000000    0.0936877000000000 Rb
   0.7500000000000000    0.3273347800000000    0.4063122999999990 Rb
   0.7500000000000000    0.1726652200000000    0.9063123000000000 Rb
   0.2500000000000000    0.9711340400000000    0.6987205700000000 Sb
   0.2500000000000000    0.5288659600000000    0.1987205700000000 Sb
   0.7500000000000000    0.0288659600000000    0.3012794300000000 Sb
   0.7500000000000000    0.4711340400000000    0.8012794300000000 Sb
   0.7500000000000000    0.8252032600000000    0.8384599600000000 Sb
   0.7500000000000000    0.6747967400000000    0.3384599600000000 Sb
   0.2500000000000000    0.1747967400000000    0.1615400400000000 Sb
   0.2500000000000000    0.3252032600000000    0.6615400400000000 Sb
   0.7500000000000000    0.1157115900000000    0.5586270999999990 Sb
   0.7500000000000000    0.3842884100000000    0.0586270999999990 Sb
   0.2500000000000000    0.8842884100000000    0.4413728999999990 Sb
   0.2500000000000000    0.6157115900000000    0.9413729000000000 Sb
   0.7500000000000000    0.8207015800000000    0.7042905700000001 Se
   0.7500000000000000    0.6792984200000001    0.2042905700000000 Se
   0.2500000000000000    0.1792984200000000    0.2957094300000000 Se
   0.2500000000000000    0.3207015800000000    0.7957094300000001 Se
   0.7500000000000000    0.1523928300000000    0.6802813200000000 Se
   0.7500000000000000    0.3476071700000000    0.1802813200000000 Se
   0.2500000000000000    0.8476071700000000    0.3197186800000000 Se
   0.2500000000000000    0.6523928300000000    0.8197186800000000 Se
   0.2500000000000000    0.9783510100000000    0.8379103500000000 Se
   0.2500000000000000    0.5216489900000000    0.3379103500000000 Se
   0.7500000000000000    0.0216489900000000    0.1620896500000000 Se
   0.7500000000000000    0.4783510100000000    0.6620896500000000 Se
   0.7500000000000000    0.7764849900000000    0.9621547700000000 Se
   0.7500000000000000    0.7235150100000001    0.4621547700000000 Se
   0.2500000000000000    0.2235150100000000    0.0378452300000000 Se
   0.2500000000000000    0.2764849900000000    0.5378452300000001 Se
   0.2500000000000000    0.9528430999999991    0.5760417100000000 Se
   0.2500000000000000    0.5471568999999999    0.0760417100000000 Se
   0.7500000000000000    0.0471568999999990    0.4239582900000000 Se
   0.7500000000000000    0.4528431000000000    0.9239582900000001 Se
