Li18 Nd12 Sb6 Te2 O48
1.0
  10.5188910000000000    0.0666110000000000   -3.7648619999999999
  -5.1811579999999999    9.0937780000000004   -3.7061649999999999
  -0.0676100000000000   -0.0453950000000000   11.1014990000000004
Li Nd Sb Te O
18 12 6 2 48
direct
   0.1603220000000000    0.8711190000000000    0.8819739999999990 Li
   0.1292559999999990    0.8708340000000000    0.2483230000000000 Li
   0.2931249999999990    0.6433289999999990    0.3930889999999990 Li
   0.2748020000000000    0.1362700000000000    0.8803010000000000 Li
   0.3807770000000000    0.6322059999999990    0.7578140000000000 Li
   0.3743800000000000    0.2495740000000000    0.6260380000000000 Li
   0.6220430000000000    0.7491270000000000    0.3719840000000000 Li
   0.6050530000000000    0.3882160000000000    0.2556890000000000 Li
   0.7463900000000001    0.8516319999999999    0.1472740000000000 Li
   0.7361980000000000    0.3688680000000000    0.6113250000000000 Li
   0.9904339999999990    0.6056790000000000    0.7873340000000000 Li
   0.8359650000000000    0.1293949999999990    0.7026479999999991 Li
   0.7419000000000000    0.3091290000000000    0.2085690000000000 Li
   0.0413730000000000    0.0928780000000000    0.7972969999999990 Li
   0.7886059999999990    0.0296580000000000    0.1052049999999990 Li
   0.8789600000000001    0.2514940000000000    0.1276660000000000 Li
   0.0755840000000000    0.4609410000000000    0.2611080000000000 Li
   0.8920480000000000    0.1825930000000000    0.9294760000000000 Li
   0.2550600000000000    0.8815860000000000    0.6220049999999990 Nd
   0.1390600000000000    0.3755130000000000    0.7515750000000000 Nd
   0.1333720000000000    0.2425320000000000    0.3771130000000000 Nd
   0.3838270000000000    0.7560230000000000    0.1243180000000000 Nd
   0.2660110000000000    0.3762080000000000    0.1293139999999990 Nd
   0.6143179999999990    0.8627730000000000    0.7354980000000000 Nd
   0.3821420000000000    0.1246589999999990    0.2611870000000000 Nd
   0.6090329999999990    0.2419800000000000    0.8675700000000001 Nd
   0.7352820000000000    0.6188859999999990    0.8676750000000000 Nd
   0.8527650000000000    0.7367530000000000    0.6070030000000000 Nd
   0.8713360000000000    0.6341920000000000    0.2498709999999990 Nd
   0.7460089999999990    0.1167650000000000    0.3845690000000000 Nd
   0.0039260000000000    0.9990479999999990    0.4979710000000000 Sb
   0.9952639999999990    0.9911749999999990    0.9972240000000000 Sb
   0.4923110000000000    0.4946239999999991    0.4996160000000000 Sb
   0.4965310000000000    0.9998030000000000    0.5004980000000000 Sb
   0.5003489999999990    0.4959909999999990    0.0002459999999990 Sb
   0.5020920000000000    0.0022559999999990    0.0041770000000000 Sb
   0.0062959999999990    0.5038170000000000    0.5054330000000000 Te
   0.0018219999999990    0.4971129999999990    0.9977210000000000 Te
   0.0928109999999990    0.9746500000000001    0.6778500000000001 O
   0.0128430000000000    0.3176569999999990    0.8949229999999990 O
   0.1262130000000000    0.5886810000000000    0.9323969999999990 O
   0.0654680000000000    0.6872250000000000    0.6726770000000000 O
   0.0793260000000000    0.8778760000000000    0.4056900000000001 O
   0.0990159999999990    0.6160270000000000    0.4272350000000000 O
   0.1710839999999990    0.4787849999999990    0.5968180000000000 O
   0.4321390000000000    0.8359559999999990    0.8075110000000000 O
   0.3851580000000000    0.5797230000000000    0.9085940000000000 O
   0.2999509999999990    0.3242270000000000    0.9173969999999990 O
   0.3286730000000000    0.9132560000000000    0.2981560000000000 O
   0.0077490000000000    0.1872220000000000    0.1130520000000000 O
   0.1733210000000000    0.1977990000000000    0.5787660000000000 O
   0.1784889999999990    0.5536230000000000    0.1737100000000000 O
   0.4127180000000000    0.8326900000000000    0.5330969999999990 O
   0.3356810000000000    0.9149450000000000    0.0322480000000000 O
   0.2891789999999990    0.4659359999999990    0.3765929999999990 O
   0.1249530000000000    0.0251489999999990    0.1941050000000000 O
   0.5241620000000000    0.6168840000000000    0.6987890000000000 O
   0.4115580000000000    0.0786979999999990    0.8791650000000000 O
   0.5288959999999990    0.4043750000000000    0.8283800000000001 O
   0.3798470000000000    0.2978790000000000    0.4754080000000000 O
   0.5856720000000000    0.9119910000000000    0.3878310000000000 O
   0.1762930000000000    0.1090990000000000    0.9964729999999991 O
   0.8010760000000000    0.8776640000000000    0.9783310000000000 O
   0.4125890000000000    0.0887140000000000    0.6163250000000000 O
   0.6074860000000000    0.6915870000000000    0.5190070000000000 O
   0.4714800000000001    0.5895440000000000    0.1715050000000000 O
   0.6082449999999990    0.9295289999999991    0.1270050000000000 O
   0.4600209999999990    0.3728889999999990    0.2983040000000000 O
   0.8736579999999990    0.9863689999999991    0.8055690000000000 O
   0.6953619999999990    0.5238349999999991    0.6126600000000001 O
   0.6879649999999990    0.1125019999999990    0.0047310000000000 O
   0.5917220000000000    0.1710829999999990    0.4767280000000000 O
   0.8250149999999991    0.4396930000000000    0.8246950000000000 O
   0.8280369999999990    0.8014439999999990    0.4176269999999990 O
   0.9679390000000000    0.7953560000000000    0.8658910000000000 O
   0.6682200000000000    0.0866450000000000    0.7098920000000000 O
   0.6211620000000000    0.4147039999999990    0.0980709999999990 O
   0.7002530000000000    0.6614880000000000    0.0789520000000000 O
   0.5850710000000000    0.1793850000000000    0.2067100000000000 O
   0.8295830000000000    0.5127760000000000    0.3940340000000000 O
   0.9090119999999990    0.3876360000000000    0.5772510000000000 O
   0.9326800000000001    0.1206729999999990    0.6024149999999990 O
   0.9314810000000000    0.3195580000000000    0.3239970000000000 O
   0.8843449999999990    0.3879670000000000    0.0640780000000000 O
   0.9788920000000000    0.6619419999999990    0.0975620000000000 O
   0.9063779999999990    0.0304200000000000    0.3258010000000000 O
