Cs12 As4 Se16 O4
1.0
  10.4681060000000006    0.0000000000000000    0.0000000000000000
   0.0000000000000000   10.5500150000000001    0.0000000000000000
 -10.2454149999999995    0.0000000000000000   12.1176250000000003
Cs As Se O
12 4 16 4
direct
   0.8366629999999990    0.8257450000000000    0.7496590000000000 Cs
   0.8366629999999990    0.6742549999999990    0.2496590000000000 Cs
   0.1633369999999990    0.1742550000000000    0.2503410000000000 Cs
   0.1633369999999990    0.3257450000000000    0.7503409999999990 Cs
   0.2593890000000000    0.0747319999999990    0.5444869999999991 Cs
   0.2593890000000000    0.4252680000000000    0.0444870000000000 Cs
   0.7406110000000000    0.9252680000000000    0.4555130000000000 Cs
   0.7406110000000000    0.5747320000000000    0.9555129999999999 Cs
   0.6416910000000000    0.0390870000000000    0.9572790000000000 Cs
   0.6416910000000000    0.4609129999999990    0.4572790000000000 Cs
   0.3583090000000000    0.9609129999999991    0.0427209999999990 Cs
   0.3583090000000000    0.5390870000000000    0.5427210000000000 Cs
   0.2597359999999990    0.7841710000000000    0.7338840000000000 As
   0.2597359999999990    0.7158289999999990    0.2338839999999990 As
   0.7402639999999990    0.2158290000000000    0.2661159999999990 As
   0.7402639999999990    0.2841710000000000    0.7661160000000000 As
   0.4825890000000000    0.8079020000000000    0.7353080000000000 Se
   0.4825890000000000    0.6920980000000000    0.2353080000000000 Se
   0.5174110000000000    0.1920980000000000    0.2646920000000000 Se
   0.5174110000000000    0.3079020000000000    0.7646919999999990 Se
   0.1586350000000000    0.9841519999999990    0.7321050000000000 Se
   0.1586350000000000    0.5158480000000000    0.2321049999999990 Se
   0.8413649999999990    0.0158480000000000    0.2678950000000000 Se
   0.8413649999999990    0.4841519999999990    0.7678950000000000 Se
   0.0518130000000000    0.6505949999999990    0.5935159999999990 Se
   0.0518130000000000    0.8494050000000000    0.0935160000000000 Se
   0.9481870000000000    0.3494049999999990    0.4064839999999990 Se
   0.9481870000000000    0.1505950000000000    0.9064840000000000 Se
   0.3659070000000000    0.6750340000000000    0.9065420000000000 Se
   0.3659070000000000    0.8249660000000000    0.4065419999999990 Se
   0.6340930000000000    0.3249660000000000    0.0934580000000000 Se
   0.6340930000000000    0.1750340000000000    0.5934579999999990 Se
   0.5574800000000001    0.7504100000000000    0.0123240000000000 O
   0.5574800000000001    0.7495900000000001    0.5123240000000000 O
   0.4425200000000000    0.2495900000000000    0.9876760000000000 O
   0.4425200000000000    0.2504100000000000    0.4876760000000000 O
