Na3 Mg1 Sb1 S4
1.0
   9.3389364799999992   -0.0000001600000000   -4.0212251800000001
  -3.5592756400000001    4.1809423099999998   -1.5969705200000002
  -2.2203840100000001    0.0000000200000000    7.2151659800000001
Na Mg Sb S
3 1 1 4
direct
   0.5675164900000000    0.5730855400000000    0.0761845800000000 Na
  -0.0055690500000000    0.4269144600000000    0.5030990400000001 Na
   0.4967327600000000   -0.0000000000000000    0.6090016700000001 Na
   0.3471366600000000    0.0000000000000000    0.0815226100000000 Mg
   0.0045987200000000    1.0000000000000000    0.9527882000000000 Sb
   0.0436238900000000    0.0000000000000000    0.6626979600000000 S
   0.4464138100000000    0.4191255300000000    0.4005407500000000 S
   0.5253834400000000    1.0000000000000000   -0.0120420400000000 S
   0.0272882800000000    0.5808744700000000    0.9814152300000000 S
