Ba12 Sb8 S28
1.0
   6.2191120000000000    9.3104289999999992    0.0000000000000000
  -6.2191120000000000    9.3104289999999992    0.0000000000000000
   0.0000000000000000    4.6243639999999999   12.5873089999999994
Ba Sb S
12 8 28
direct
   0.3976190000000000    0.4057779999999990    0.6727959999999999 Ba
   0.5942220000000000    0.6023809999999991    0.8272039999999991 Ba
   0.6023809999999991    0.5942220000000000    0.3272040000000000 Ba
   0.4057779999999990    0.3976190000000000    0.1727960000000000 Ba
   0.8949020000000000    0.8921749999999991    0.6770250000000000 Ba
   0.1078249999999990    0.1050980000000000    0.8229750000000000 Ba
   0.1050980000000000    0.1078249999999990    0.3229750000000000 Ba
   0.8921749999999991    0.8949020000000000    0.1770250000000000 Ba
   0.1136409999999990    0.6237579999999990    0.9431539999999990 Ba
   0.3762419999999990    0.8863590000000000    0.5568460000000000 Ba
   0.8863590000000000    0.3762419999999990    0.0568460000000000 Ba
   0.6237579999999990    0.1136409999999990    0.4431540000000000 Ba
   0.7567980000000000    0.7020550000000000    0.5108819999999999 Sb
   0.2979449999999990    0.2432020000000000    0.9891179999999991 Sb
   0.2432020000000000    0.2979449999999990    0.4891180000000000 Sb
   0.7020550000000000    0.7567980000000000    0.0108820000000000 Sb
   0.8606889999999990    0.3048659999999990    0.5909620000000000 Sb
   0.6951339999999990    0.1393110000000000    0.9090380000000000 Sb
   0.1393110000000000    0.6951339999999990    0.4090379999999990 Sb
   0.3048659999999990    0.8606889999999990    0.0909620000000000 Sb
   0.1918060000000000    0.7000120000000000    0.6803800000000001 S
   0.2999880000000000    0.8081940000000000    0.8196200000000000 S
   0.8081940000000000    0.2999880000000000    0.3196200000000000 S
   0.7000120000000000    0.1918060000000000    0.1803800000000000 S
   0.1074939999999990    0.6112660000000000    0.6134210000000000 S
   0.3887339999999990    0.8925059999999990    0.8865790000000000 S
   0.8925059999999990    0.3887339999999990    0.3865790000000000 S
   0.6112660000000000    0.1074939999999990    0.1134210000000000 S
   0.1501000000000000    0.3553000000000000    0.8625729999999990 S
   0.6447000000000001    0.8499000000000000    0.6374270000000000 S
   0.8499000000000000    0.6447000000000001    0.1374270000000000 S
   0.3553000000000000    0.1501000000000000    0.3625730000000000 S
   0.8459030000000000    0.6449239999999991    0.8663259999999990 S
   0.3550760000000000    0.1540969999999990    0.6336740000000000 S
   0.1540969999999990    0.3550760000000000    0.1336740000000000 S
   0.6449239999999991    0.8459030000000000    0.3663260000000000 S
   0.5936110000000000    0.5782010000000000    0.5846190000000000 S
   0.4217990000000000    0.4063890000000000    0.9153810000000000 S
   0.4063890000000000    0.4217990000000000    0.4153810000000000 S
   0.5782010000000000    0.5936110000000000    0.0846190000000000 S
   0.0572810000000000    0.1001970000000000    0.5877669999999990 S
   0.8998029999999990    0.9427190000000000    0.9122330000000000 S
   0.9427190000000000    0.8998029999999990    0.4122329999999990 S
   0.1001970000000000    0.0572810000000000    0.0877670000000000 S
   0.6988340000000000    0.1964139999999990    0.6278610000000000 S
   0.8035859999999990    0.3011660000000000    0.8721390000000000 S
   0.3011660000000000    0.8035859999999990    0.3721390000000000 S
   0.1964139999999990    0.6988340000000000    0.1278610000000000 S
