Li3 Sb1 S3
1.0
   3.4062220000000001   -5.3618319999999997    0.0000000000000000
   3.4062220000000001    5.3618319999999997    0.0000000000000000
  -5.0339919999999996    0.0000000000000000    3.8743420000000000
Li Sb S
3 1 3
direct
   0.5494960000000000    0.9854160000000000    0.5494960000000000 Li
   0.5494960000000000    0.5494960000000000    0.9854160000000000 Li
   0.9854160000000000    0.5494960000000000    0.5494960000000000 Li
   0.1337360000000000    0.1337360000000000    0.1337360000000000 Sb
   0.9776090000000000    0.6265579999999999    0.9776090000000000 S
   0.9776090000000000    0.9776090000000000    0.6265579999999999 S
   0.6265579999999999    0.9776090000000000    0.9776090000000000 S
