Cs4 Bi12 Se20
1.0
   4.1792101900000000   -0.0000000000000000    0.0000000000000000
   0.0000000000000000   12.4782395899999994    0.0000000000000000
   0.0000000000000000    0.0000000000000000   22.9475030400000009
Cs Bi Se
4 12 20
direct
   0.2500000000000000    0.9899642200000001    0.2867824100000000 Cs
   0.7500000000000000    0.4899642200000000    0.2132175900000000 Cs
   0.7500000000000000    0.0100357800000000    0.7132175900000001 Cs
   0.2500000000000000    0.5100357800000000    0.7867824100000000 Cs
   0.7500000000000000    0.8041960900000000    0.1219962400000000 Bi
   0.2500000000000000    0.4069362600000000    0.5735621200000001 Bi
   0.2500000000000000    0.1958039100000000    0.8780037600000000 Bi
   0.7500000000000000    0.5930637400000001    0.4264378800000000 Bi
   0.2500000000000000    0.0930637400000000    0.0735621200000000 Bi
   0.2500000000000000    0.6363001900000000    0.9758856200000000 Bi
   0.2500000000000000    0.3041960900000000    0.3780037600000000 Bi
   0.2500000000000000    0.8636998100000001    0.4758856200000000 Bi
   0.7500000000000000    0.9069362600000000    0.9264378800000000 Bi
   0.7500000000000000    0.6958039100000000    0.6219962400000000 Bi
   0.7500000000000000    0.3636998100000000    0.0241143800000000 Bi
   0.7500000000000000    0.1363001900000000    0.5241143800000000 Bi
   0.2500000000000000    0.7519595800000000    0.6966521999999991 Se
   0.7500000000000000    0.1394829300000000    0.9809622500000000 Se
   0.2500000000000000    0.3055966200000000    0.1102816600000000 Se
   0.7500000000000000    0.5843395000000000    0.0618023400000000 Se
   0.2500000000000000    0.0843395000000000    0.4381976600000000 Se
   0.7500000000000000    0.9156605000000000    0.5618023400000001 Se
   0.2500000000000000    0.4156605000000000    0.9381976600000000 Se
   0.2500000000000000    0.8605170700000000    0.0190377500000000 Se
   0.7500000000000000    0.3605170700000000    0.4809622500000000 Se
   0.7500000000000000    0.2519595800000000    0.8033477999999999 Se
   0.2500000000000000    0.5267466400000000    0.3464736900000000 Se
   0.2500000000000000    0.9732533600000001    0.8464736900000001 Se
   0.7500000000000000    0.8055966200000000    0.3897183400000000 Se
   0.7500000000000000    0.4732533600000000    0.6535263100000001 Se
   0.2500000000000000    0.1944033800000000    0.6102816600000001 Se
   0.2500000000000000    0.7480404200000000    0.1966522000000000 Se
   0.7500000000000000    0.0267466400000000    0.1535263100000000 Se
   0.7500000000000000    0.2480404200000000    0.3033478000000000 Se
   0.7500000000000000    0.6944033800000000    0.8897183400000001 Se
   0.2500000000000000    0.6394829300000000    0.5190377500000000 Se
