Li6 Sb2 S8
1.0
   7.9602812099999998    0.0000000000000000    0.0000000000000000
   0.0000000000000000    6.8494566700000004    0.0000000000000000
   0.0000000000000000    0.0000000000000000    6.4135655099999997
Li Sb S
6 2 8
direct
   0.0000000000000000    0.1561958000000000    0.5034722500000001 Li
   0.2450518000000000    0.3251043400000000    0.9964855600000000 Li
   0.2549482000000000    0.6748956600000000    0.4964855600000000 Li
   0.5000000000000000    0.8438042000000000    0.0034722500000000 Li
   0.7450517999999990    0.6748956600000000    0.4964855600000000 Li
   0.7549482000000000    0.3251043400000000    0.9964855600000000 Li
   0.0000000000000000    0.8263660800000000    0.9953327300000000 Sb
   0.5000000000000000    0.1736339200000000    0.4953327300000000 Sb
   0.0000000000000000    0.1484453200000000    0.1191611400000000 S
   0.0000000000000000    0.8201685600000000    0.6289657200000001 S
   0.2414027700000000    0.6649925000000000    0.1155985100000000 S
   0.2585962300000000    0.3350074999999990    0.6155985100000000 S
   0.5000000000000000    0.1798314400000000    0.1289657200000000 S
   0.5000000000000000    0.8515546800000000    0.6191611400000000 S
   0.7414027700000000    0.3350074999999990    0.6155985100000000 S
   0.7585972300000000    0.6649925000000000    0.1155985100000000 S
