Ag2 Sb6 Pb2 S12
1.0
   0.0000000000000000    0.0000000000000000    5.1087270000000000
   9.3535160000000008    6.0278260000000001    0.0000000000000000
 -10.1462649999999996    7.0218509999999998    0.0000000000000000
Ag Sb Pb S
2 6 2 12
direct
   0.3376929999999990    0.9887980000000000    0.2712670000000000 Ag
   0.6623070000000000    0.4887979999999990    0.7712669999999990 Ag
   0.7485769999999990    0.7050729999999999    0.0967700000000000 Sb
   0.8052210000000000    0.8105319999999990    0.4097690000000000 Sb
   0.3862540000000000    0.4908639999999990    0.2134420000000000 Sb
   0.6137460000000000    0.9908640000000000    0.7134420000000000 Sb
   0.1947789999999990    0.3105320000000000    0.9097689999999991 Sb
   0.2514230000000000    0.2050729999999990    0.5967700000000000 Sb
   0.8368369999999991    0.2058930000000000    0.2295660000000000 Pb
   0.1631630000000000    0.7058930000000000    0.7295659999999990 Pb
   0.3220940000000000    0.3313879999999990    0.3010069999999990 S
   0.6779060000000000    0.8313880000000000    0.8010069999999990 S
   0.1353970000000000    0.7434700000000001    0.2428489999999990 S
   0.8646030000000000    0.2434700000000000    0.7428490000000000 S
   0.3110680000000000    0.0851420000000000    0.8847400000000001 S
   0.3361389999999990    0.4288980000000000    0.6165070000000000 S
   0.6638609999999990    0.9288980000000000    0.1165070000000000 S
   0.6889320000000000    0.5851419999999991    0.3847400000000000 S
   0.8845470000000000    0.3489450000000000    0.0685819999999990 S
   0.1154530000000000    0.8489449999999999    0.5685819999999990 S
   0.9978950000000000    0.6109970000000000    0.9155010000000000 S
   0.0021050000000000    0.1109970000000000    0.4155009999999990 S
