Rb12 Bi4 Se12
1.0
  10.2440339199999997    0.0000000000000000   -0.0000000000000000
   0.0000000000000000   10.2440339199999997    0.0000000000000000
   0.0000000000000000    0.0000000000000000   10.2440339199999997
Rb Bi Se
12 4 12
direct
   0.3207673000000000    0.3207673000000000    0.3207673000000000 Rb
   0.1792327000000000    0.6792327000000000    0.8207673000000000 Rb
   0.8207673000000000    0.1792327000000000    0.6792327000000000 Rb
   0.6792327000000000    0.8207673000000000    0.1792327000000000 Rb
   0.5720566400000000    0.5720566400000000    0.5720566400000000 Rb
   0.9279433600000000    0.4279433600000000    0.0720566400000000 Rb
   0.0720566400000000    0.9279433600000000    0.4279433600000000 Rb
   0.4279433600000000    0.0720566400000000    0.9279433600000000 Rb
   0.8128176700000000    0.8128176700000000    0.8128176700000000 Rb
   0.6871823300000001    0.1871823300000000    0.3128176700000000 Rb
   0.3128176700000000    0.6871823300000001    0.1871823300000000 Rb
   0.1871823300000000    0.3128176700000000    0.6871823300000001 Rb
   0.0310587500000000    0.0310587500000000    0.0310587500000000 Bi
   0.4689412500000000    0.9689412500000000    0.5310587500000000 Bi
   0.5310587500000000    0.4689412500000000    0.9689412500000000 Bi
   0.9689412500000000    0.5310587500000000    0.4689412500000000 Bi
   0.2176106300000000    0.6058995300000000    0.4972757400000000 Se
   0.4972757400000000    0.2176106300000000    0.6058995300000000 Se
   0.6058995300000000    0.4972757400000000    0.2176106300000000 Se
   0.8941004700000000    0.5027242600000000    0.7176106300000000 Se
   0.9972757400000000    0.2823893700000000    0.3941004700000000 Se
   0.3941004700000000    0.9972757400000000    0.2823893700000000 Se
   0.0027242600000000    0.7823893700000000    0.1058995300000000 Se
   0.5027242600000000    0.7176106300000000    0.8941004700000000 Se
   0.1058995300000000    0.0027242600000000    0.7823893700000000 Se
   0.7176106300000000    0.8941004700000000    0.5027242600000000 Se
   0.7823893700000000    0.1058995300000000    0.0027242600000000 Se
   0.2823893700000000    0.3941004700000000    0.9972757400000000 Se
