K3 Mg1 Sb1 S4
1.0
   7.3346746700000001    0.0000000700000000   -1.1347418600000001
  -4.3548612899999997    5.1611896899999996   -3.0793517200000000
   1.3750467900000001   -0.0000000000000000    7.2934451100000004
K Mg Sb S
3 1 1 4
direct
   0.0912958400000000    0.5000000000000000    0.5912958400000000 K
   0.5000000000000000    0.0000000000000000    0.5000000000000000 K
   0.4087041600000000    0.5000000000000000    0.9087041600000000 K
   0.7500000000000000    0.5000000000000000    0.2500000000000000 Mg
   0.0000000000000000    0.0000000000000000    0.0000000000000000 Sb
   0.0458285400000000    0.9069026500000000    0.6075638200000000 S
   0.8610741200000001    0.5617352900000000    0.9541714600000000 S
   0.7006611700000001    0.0930973500000000    0.1389258800000000 S
   0.3924361800000000    0.4382647100000000    0.2993388300000000 S
