Co4 As8 S16 O32 F48
1.0
  14.0117139999999996    0.0000000000000000    0.0000000000000000
   0.0000000000000000    8.8190890000000000    0.0000000000000000
   0.0000000000000000    2.3363190000000000   15.1651009999999999
Co As S O F
4 8 16 32 48
direct
   0.8130390000000000    0.2255879999999990    0.2572720000000000 Co
   0.3130390000000000    0.7744120000000000    0.2427280000000000 Co
   0.1869610000000000    0.7744120000000000    0.7427279999999991 Co
   0.6869609999999990    0.2255879999999990    0.7572719999999999 Co
   0.6139450000000000    0.4103000000000000    0.3683780000000000 As
   0.1139449999999990    0.5897000000000000    0.1316220000000000 As
   0.3860550000000000    0.5897000000000000    0.6316220000000000 As
   0.8860549999999990    0.4103000000000000    0.8683780000000000 As
   0.6469520000000000    0.0362920000000000    0.1092720000000000 As
   0.1469520000000000    0.9637080000000000    0.3907279999999990 As
   0.3530480000000000    0.9637080000000000    0.8907280000000000 As
   0.8530479999999990    0.0362920000000000    0.6092719999999990 As
   0.7986730000000000    0.5751940000000000    0.1126310000000000 S
   0.2986729999999990    0.4248059999999990    0.3873689999999990 S
   0.2013269999999990    0.4248059999999990    0.8873690000000000 S
   0.7013269999999990    0.5751940000000000    0.6126309999999990 S
   0.9738610000000000    0.3745819999999990    0.3930720000000000 S
   0.4738610000000000    0.6254179999999990    0.1069280000000000 S
   0.0261390000000000    0.6254179999999990    0.6069280000000000 S
   0.5261390000000000    0.3745819999999990    0.8930720000000000 S
   0.8276739999999990    0.8465220000000000    0.3428890000000000 S
   0.3276739999999990    0.1534780000000000    0.1571110000000000 S
   0.1723259999999990    0.1534780000000000    0.6571110000000000 S
   0.6723260000000000    0.8465220000000000    0.8428890000000000 S
   0.9677479999999991    0.0910500000000000    0.1053900000000000 S
   0.4677480000000000    0.9089500000000000    0.3946100000000000 S
   0.0322519999999990    0.9089500000000000    0.8946100000000001 S
   0.5322519999999999    0.0910500000000000    0.6053900000000001 S
   0.8147280000000000    0.4421950000000000    0.1802480000000000 O
   0.3147280000000000    0.5578050000000000    0.3197520000000000 O
   0.1852720000000000    0.5578050000000000    0.8197519999999990 O
   0.6852720000000000    0.4421950000000000    0.6802480000000000 O
   0.7079710000000000    0.5864579999999990    0.0681539999999990 O
   0.2079710000000000    0.4135419999999990    0.4318460000000000 O
   0.2920290000000000    0.4135419999999990    0.9318460000000000 O
   0.7920290000000000    0.5864579999999990    0.5681539999999990 O
   0.9226550000000000    0.2868320000000000    0.3341900000000000 O
   0.4226550000000000    0.7131679999999990    0.1658100000000000 O
   0.0773450000000000    0.7131679999999990    0.6658100000000000 O
   0.5773450000000000    0.2868320000000000    0.8341900000000001 O
   0.9315669999999990    0.5168260000000000    0.4084000000000000 O
   0.4315670000000000    0.4831740000000000    0.0916000000000000 O
   0.0684330000000000    0.4831740000000000    0.5916000000000000 O
   0.5684330000000000    0.5168260000000000    0.9084000000000001 O
   0.8106550000000000    0.0117019999999990    0.3375829999999990 O
   0.3106549999999990    0.9882980000000000    0.1624170000000000 O
   0.1893449999999990    0.9882980000000000    0.6624169999999990 O
   0.6893450000000000    0.0117019999999990    0.8375830000000000 O
   0.8571350000000000    0.7926289999999990    0.2629960000000000 O
   0.3571350000000000    0.2073710000000000    0.2370040000000000 O
   0.1428650000000000    0.2073710000000000    0.7370040000000000 O
   0.6428650000000000    0.7926289999999990    0.7629960000000000 O
   0.9206900000000001    0.1575430000000000    0.1757550000000000 O
   0.4206900000000000    0.8424570000000000    0.3242450000000000 O
   0.0793100000000000    0.8424570000000000    0.8242450000000000 O
   0.5793100000000001    0.1575430000000000    0.6757550000000000 O
   0.0675689999999990    0.1248140000000000    0.0921950000000000 O
   0.5675690000000000    0.8751859999999990    0.4078050000000000 O
   0.9324310000000000    0.8751859999999990    0.9078050000000000 O
   0.4324309999999990    0.1248140000000000    0.5921950000000000 O
   0.7142550000000000    0.2863590000000000    0.3448200000000000 F
   0.2142550000000000    0.7136410000000000    0.1551800000000000 F
   0.2857449999999990    0.7136410000000000    0.6551800000000001 F
   0.7857449999999990    0.2863590000000000    0.8448200000000000 F
   0.6415320000000000    0.3612350000000000    0.4818670000000000 F
   0.1415320000000000    0.6387649999999990    0.0181330000000000 F
   0.3584680000000000    0.6387649999999990    0.5181330000000000 F
   0.8584680000000000    0.3612350000000000    0.9818669999999990 F
   0.5186500000000001    0.5268160000000000    0.3912650000000000 F
   0.0186500000000000    0.4731840000000000    0.1087350000000000 F
   0.4813500000000001    0.4731840000000000    0.6087350000000000 F
   0.9813500000000001    0.5268160000000000    0.8912650000000000 F
   0.6953790000000000    0.5638960000000000    0.3605839999999990 F
   0.1953790000000000    0.4361040000000000    0.1394159999999990 F
   0.3046210000000000    0.4361040000000000    0.6394160000000000 F
   0.8046209999999990    0.5638960000000000    0.8605840000000000 F
   0.5394690000000000    0.2470339999999990    0.3768880000000000 F
   0.0394690000000000    0.7529659999999990    0.1231120000000000 F
   0.4605309999999990    0.7529659999999990    0.6231120000000000 F
   0.9605309999999990    0.2470339999999990    0.8768880000000000 F
   0.5924370000000000    0.4498640000000000    0.2537030000000000 F
   0.0924369999999990    0.5501360000000000    0.2462970000000000 F
   0.4075630000000000    0.5501360000000000    0.7462970000000000 F
   0.9075630000000000    0.4498640000000000    0.7537030000000000 F
   0.6428769999999990    0.2004860000000000    0.0279080000000000 F
   0.1428770000000000    0.7995139999999999    0.4720919999999990 F
   0.3571229999999990    0.7995139999999999    0.9720920000000000 F
   0.8571230000000000    0.2004860000000000    0.5279079999999990 F
   0.7046650000000000    0.1577640000000000    0.1832840000000000 F
   0.2046649999999990    0.8422360000000000    0.3167160000000000 F
   0.2953350000000000    0.8422360000000000    0.8167160000000000 F
   0.7953350000000000    0.1577640000000000    0.6832840000000000 F
   0.6538189999999990    0.8816780000000000    0.1966600000000000 F
   0.1538189999999990    0.1183220000000000    0.3033400000000000 F
   0.3461809999999990    0.1183220000000000    0.8033400000000001 F
   0.8461810000000000    0.8816780000000000    0.6966600000000001 F
   0.5935180000000000    0.9213589999999990    0.0390470000000000 F
   0.0935179999999990    0.0786410000000000    0.4609530000000000 F
   0.4064819999999990    0.0786410000000000    0.9609529999999999 F
   0.9064820000000000    0.9213589999999990    0.5390469999999991 F
   0.7624430000000000    0.9928119999999990    0.0743490000000000 F
   0.2624430000000000    0.0071880000000000    0.4256510000000000 F
   0.2375570000000000    0.0071880000000000    0.9256510000000000 F
   0.7375570000000000    0.9928119999999990    0.5743490000000000 F
   0.5359950000000000    0.0888740000000000    0.1501310000000000 F
   0.0359950000000000    0.9111260000000000    0.3498690000000000 F
   0.4640050000000000    0.9111260000000000    0.8498690000000000 F
   0.9640050000000000    0.0888740000000000    0.6501310000000000 F
