Al2 Sb10 Se10 Cl8
1.0
   9.7019179999999992    0.0000000000000000    0.0000000000000000
  -1.6648390000000000    9.6974699999999991    0.0000000000000000
  -4.1357889999999999   -3.6570849999999999   10.5936880000000002
Al Sb Se Cl
2 10 10 8
direct
   0.9257989999999990    0.6232329999999990    0.3004560000000000 Al
   0.0742010000000000    0.3767669999999990    0.6995439999999991 Al
   0.7806780000000000    0.2325730000000000    0.9390409999999991 Sb
   0.2193220000000000    0.7674270000000000    0.0609590000000000 Sb
   0.9048269999999990    0.0252340000000000    0.8087270000000000 Sb
   0.0951730000000000    0.9747659999999990    0.1912730000000000 Sb
   0.5783000000000000    0.8140400000000001    0.9152859999999990 Sb
   0.4217000000000000    0.1859600000000000    0.0847140000000000 Sb
   0.4247829999999990    0.8805430000000000    0.6852980000000000 Sb
   0.5752170000000000    0.1194570000000000    0.3147020000000000 Sb
   0.7022609999999990    0.6225860000000000    0.5848030000000000 Sb
   0.2977390000000000    0.3774139999999990    0.4151970000000000 Sb
   0.7204010000000000    0.0783089999999990    0.0764910000000000 Se
   0.2795990000000000    0.9216909999999990    0.9235089999999990 Se
   0.5018190000000000    0.1620849999999990    0.7729670000000000 Se
   0.4981810000000000    0.8379150000000000    0.2270329999999990 Se
   0.8449260000000000    0.8061630000000000    0.8890039999999990 Se
   0.1550740000000000    0.1938369999999990    0.1109960000000000 Se
   0.6429000000000000    0.8891939999999990    0.5957960000000000 Se
   0.3571000000000000    0.1108060000000000    0.4042040000000000 Se
   0.4955460000000000    0.5144580000000000    0.6551600000000001 Se
   0.5044540000000000    0.4855420000000000    0.3448400000000000 Se
   0.1612500000000000    0.6743000000000000    0.3167600000000000 Cl
   0.8387500000000001    0.3257000000000000    0.6832400000000001 Cl
   0.9050039999999990    0.7947919999999991    0.4390500000000001 Cl
   0.0949960000000000    0.2052080000000000    0.5609500000000001 Cl
   0.8763080000000000    0.4148850000000000    0.3296000000000000 Cl
   0.1236920000000000    0.5851149999999991    0.6704000000000000 Cl
   0.7725900000000001    0.6067239999999990    0.1140979999999990 Cl
   0.2274100000000000    0.3932759999999990    0.8859020000000000 Cl
