K12 Sb4 Te12
1.0
  10.4709548500000000   -0.0000000000000000   -0.0000000000000000
   0.0000000000000000   10.4709548500000000    0.0000000000000000
   0.0000000000000000   -0.0000000000000000   10.4709548500000000
K Sb Te
12 4 12
direct
   0.5803245300000001    0.5803245300000001    0.5803245300000001 K
   0.9196754700000001    0.4196754700000000    0.0803245300000000 K
   0.0803245300000000    0.9196754700000001    0.4196754700000000 K
   0.4196754700000000    0.0803245300000000    0.9196754700000001 K
   0.3218514900000000    0.3218514900000000    0.3218514900000000 K
   0.1781485100000000    0.6781485100000000    0.8218514900000000 K
   0.8218514900000000    0.1781485100000000    0.6781485100000000 K
   0.6781485100000000    0.8218514900000000    0.1781485100000000 K
   0.8171489200000001    0.8171489200000001    0.8171489200000001 K
   0.6828510800000001    0.1828510800000000    0.3171489200000000 K
   0.3171489200000000    0.6828510800000001    0.1828510800000000 K
   0.1828510800000000    0.3171489200000000    0.6828510800000001 K
   0.0293571500000000    0.0293571500000000    0.0293571500000000 Sb
   0.4706428500000000    0.9706428500000001    0.5293571500000001 Sb
   0.5293571500000001    0.4706428500000000    0.9706428500000001 Sb
   0.9706428500000001    0.5293571500000001    0.4706428500000000 Sb
   0.2253083700000000    0.6089479200000000    0.4975621200000000 Te
   0.4975621200000000    0.2253083700000000    0.6089479200000000 Te
   0.6089479200000000    0.4975621200000000    0.2253083700000000 Te
   0.8910520800000000    0.5024378800000000    0.7253083700000000 Te
   0.9975621200000000    0.2746916300000000    0.3910520800000000 Te
   0.3910520800000000    0.9975621200000000    0.2746916300000000 Te
   0.0024378800000000    0.7746916300000000    0.1089479200000000 Te
   0.5024378800000000    0.7253083700000000    0.8910520800000000 Te
   0.1089479200000000    0.0024378800000000    0.7746916300000000 Te
   0.7253083700000000    0.8910520800000000    0.5024378800000000 Te
   0.7746916300000000    0.1089479200000000    0.0024378800000000 Te
   0.2746916300000000    0.3910520800000000    0.9975621200000000 Te
