K3 Bi1 As6 Se12
1.0
   4.9453589999999998   -8.5656129999999990    0.0000000000000000
   4.9453589999999998    8.5656129999999990    0.0000000000000000
   0.0000000000000000    0.0000000000000000    7.9623010000000001
K Bi As Se
3 1 6 12
direct
   0.0000000000000000    0.0000000000000000    0.0000000000000000 K
   0.3333330000000000    0.6666670000000000    0.8345739999999990 K
   0.6666670000000000    0.3333330000000000    0.1654260000000000 K
   0.0000000000000000    0.0000000000000000    0.5000000000000000 Bi
   0.2970400000000000    0.8429610000000000    0.3690410000000000 As
   0.1570389999999990    0.4540789999999990    0.3690410000000000 As
   0.5459210000000000    0.7029600000000000    0.3690410000000000 As
   0.7029600000000000    0.1570389999999990    0.6309589999999990 As
   0.8429610000000000    0.5459210000000000    0.6309589999999990 As
   0.4540789999999990    0.2970400000000000    0.6309589999999990 As
   0.2760010000000000    0.0632460000000000    0.2863340000000000 Se
   0.9367540000000000    0.2127560000000000    0.2863340000000000 Se
   0.7872439999999991    0.7239989999999999    0.2863340000000000 Se
   0.7239989999999999    0.9367540000000000    0.7136660000000000 Se
   0.0632460000000000    0.7872439999999991    0.7136660000000000 Se
   0.2127560000000000    0.2760010000000000    0.7136660000000000 Se
   0.5324460000000000    0.9055860000000000    0.1995859999999990 Se
   0.0944140000000000    0.6268589999999991    0.1995859999999990 Se
   0.3731410000000000    0.4675539999999990    0.1995859999999990 Se
   0.4675539999999990    0.0944140000000000    0.8004140000000000 Se
   0.9055860000000000    0.3731410000000000    0.8004140000000000 Se
   0.6268589999999991    0.5324460000000000    0.8004140000000000 Se
