Cs6 Sb10 Se18
1.0
  13.1577587999999999    4.8282125000000002    0.0253724700000000
 -13.1577587999999999    4.8282125000000002    0.0253724700000000
   0.0000000000000000    2.7641025799999999    9.3259939900000006
Cs Sb Se
6 10 18
direct
   0.4199365000000000    0.5800635000000000    0.5000000000000000 Cs
   0.5800635000000000    0.4199365000000000    0.5000000000000000 Cs
   0.0127777700000000    0.4459152500000000    0.2400220200000000 Cs
   0.4459152500000000    0.0127777700000000    0.2400220200000000 Cs
   0.9872222300000000    0.5540847500000000    0.7599779800000001 Cs
   0.5540847500000000    0.9872222300000000    0.7599779800000001 Cs
   0.0377374700000000    0.2830401800000000    0.8389014800000000 Sb
   0.2830401800000000    0.0377374700000000    0.8389014800000000 Sb
   0.9622625300000001    0.7169598200000000    0.1610985200000000 Sb
   0.7169598200000000    0.9622625300000001    0.1610985200000000 Sb
   0.4240967400000000    0.5759032600000000   -0.0000000000000000 Sb
   0.5759032600000000    0.4240967400000000   -0.0000000000000000 Sb
   0.9257404500000000    0.0742595500000000    0.5000000000000000 Sb
   0.0742595500000000    0.9257404500000000    0.5000000000000000 Sb
   0.1255185700000000    0.1255185700000000    0.1187879200000000 Sb
   0.8744814300000000    0.8744814300000000    0.8812120800000001 Sb
   0.0009010600000000    0.3181757300000000    0.5960538900000000 Se
   0.3181757300000000    0.0009010600000000    0.5960538900000000 Se
  -0.0009010600000000    0.6818242700000000    0.4039461100000000 Se
   0.6818242700000000   -0.0009010600000000    0.4039461100000000 Se
   0.2494523200000000    0.5639904300000000    0.8436343400000000 Se
   0.5639904300000000    0.2494523200000000    0.8436343400000000 Se
   0.7505476800000001    0.4360095700000000    0.1563656600000000 Se
   0.4360095700000000    0.7505476800000001    0.1563656600000000 Se
   0.1288907700000000    0.1288907700000000    0.6239685300000000 Se
   0.8711092300000001    0.8711092300000001    0.3760314700000000 Se
   0.3691323300000000    0.3691323300000000    0.8746110300000001 Se
   0.6308676700000000    0.6308676700000000    0.1253889700000000 Se
   0.8063026500000000    0.1936973500000000   -0.0000000000000000 Se
   0.1936973500000000    0.8063026500000000   -0.0000000000000000 Se
   0.1545648000000000    0.3063655100000000    0.2295987600000000 Se
   0.3063655100000000    0.1545648000000000    0.2295987600000000 Se
   0.8454351999999991    0.6936344900000000    0.7704012400000000 Se
   0.6936344900000000    0.8454351999999991    0.7704012400000000 Se
