Sb16 Pb6 S30
1.0
   5.9107085699999997    6.7689165300000003   -0.0356285900000000
  -5.9107085699999997    6.7689165300000003   -0.0356285900000000
   0.0000000000000000    1.7516178500000001   17.6003244499999987
Sb Pb S
16 6 30
direct
   0.1408046100000000    0.0351232400000000    0.0767753700000000 Sb
   0.9648767600000000    0.8591953900000000    0.4232246300000000 Sb
   0.8591953900000000    0.9648767600000000    0.9232246300000000 Sb
   0.0351232400000000    0.1408046100000000    0.5767753700000000 Sb
   0.3937645900000000    0.8836617100000000    0.4365418000000000 Sb
   0.1163382900000000    0.6062354100000000    0.0634581999999990 Sb
   0.6062354100000000    0.1163382900000000    0.5634582000000000 Sb
   0.8836617100000000    0.3937645900000000    0.9365418000000000 Sb
   0.5053996300000000    0.2360866500000000    0.0015875200000000 Sb
   0.7639133500000000    0.4946003700000000    0.4984124800000000 Sb
   0.4946003700000000    0.7639133500000000    0.9984124800000000 Sb
   0.2360866500000000    0.5053996300000000    0.5015875200000001 Sb
   0.5890393500000000    0.2230600300000000    0.3421549800000000 Sb
   0.7769399700000000    0.4109606500000000    0.1578450200000000 Sb
   0.4109606500000000    0.7769399700000000    0.6578450200000000 Sb
   0.2230600300000000    0.5890393500000000    0.8421549800000000 Sb
   0.7374140800000000    0.8810786400000000    0.1636383400000000 Pb
   0.1189213600000000    0.2625859200000000    0.3363616600000000 Pb
   0.2625859200000000    0.1189213600000000    0.8363616600000000 Pb
   0.8810786400000000    0.7374140800000000    0.6636383400000000 Pb
   0.3784175500000000    0.6215824500000000    0.2500000000000000 Pb
   0.6215824500000000    0.3784175500000000    0.7500000000000000 Pb
   0.8155128200000000    0.1844871800000000    0.2500000000000000 S
   0.1844871800000000    0.8155128200000000    0.7500000000000000 S
   0.1979435600000000    0.9357819800000000    0.3412200900000000 S
   0.0642180200000000    0.8020564400000000    0.1587799100000000 S
   0.8020564400000000    0.0642180200000000    0.6587799100000000 S
   0.9357819800000000    0.1979435600000000    0.8412200900000000 S
   0.8326323400000000    0.1051445700000000    0.0374110100000000 S
   0.8948554300000000    0.1673676600000000    0.4625889900000000 S
   0.1673676600000000    0.8948554300000000    0.9625889900000000 S
   0.1051445700000000    0.8326323400000000    0.5374110100000000 S
   0.4270935900000000    0.9452618900000000    0.0989936999999990 S
   0.0547381100000000    0.5729064100000000    0.4010063000000000 S
   0.5729064100000000    0.0547381100000000    0.9010062999999990 S
   0.9452618900000000    0.4270935900000000    0.5989937000000000 S
   0.4465853999999990    0.6104902700000000    0.4138121999999990 S
   0.3895097300000000    0.5534146000000000    0.0861878000000000 S
   0.5534146000000000    0.3895097300000000    0.5861877999999990 S
   0.6104902700000000    0.4465853999999990    0.9138122000000000 S
   0.5900572800000000    0.9478475300000000    0.3367055400000000 S
   0.0521524700000000    0.4099427200000000    0.1632944600000000 S
   0.4099427200000000    0.0521524700000000    0.6632944600000000 S
   0.9478475300000000    0.5900572800000000    0.8367055400000000 S
   0.2411515800000000    0.2911674200000000    0.9637492000000000 S
   0.7088325800000000    0.7588484200000000    0.5362508000000000 S
   0.7588484200000000    0.7088325800000000    0.0362508000000000 S
   0.2911674200000000    0.2411515800000000    0.4637492000000000 S
   0.3076785700000000    0.4038143600000000    0.7493794400000000 S
   0.5961856400000000    0.6923214300000000    0.7506205600000000 S
   0.6923214300000000    0.5961856400000000    0.2506205600000000 S
   0.4038143600000000    0.3076785700000000    0.2493794400000000 S
