Tl12 Sb4 Se12
1.0
   9.5890435499999995   -0.0000000000000000    0.0000000000000000
   0.0000000000000000    9.5890435499999995   -0.0000000000000000
   0.0000000000000000    0.0000000000000000    9.5890435499999995
Tl Sb Se
12 4 12
direct
   0.6899033200000000    0.8100966800000000    0.1899033200000000 Tl
   0.8100966800000000    0.1899033200000000    0.6899033200000000 Tl
   0.1899033200000000    0.6899033200000000    0.8100966800000000 Tl
   0.3100966800000000    0.3100966800000000    0.3100966800000000 Tl
   0.4500695800000000    0.0499304200000000    0.9500695800000000 Tl
   0.0499304200000000    0.9500695800000000    0.4500695800000000 Tl
   0.9500695800000000    0.4500695800000000    0.0499304200000000 Tl
   0.5499304200000000    0.5499304200000000    0.5499304200000000 Tl
   0.9121856400000000    0.5878143600000000    0.4121856400000000 Tl
   0.5878143600000000    0.4121856400000000    0.9121856400000000 Tl
   0.4121856400000000    0.9121856400000000    0.5878143600000000 Tl
   0.0878143600000000    0.0878143600000000    0.0878143600000000 Tl
   0.8002504300000001    0.8002504300000001    0.8002504300000001 Sb
   0.6997495700000000    0.1997495700000000    0.3002504300000000 Sb
   0.3002504300000000    0.6997495700000000    0.1997495700000000 Sb
   0.1997495700000000    0.3002504300000000    0.6997495700000000 Sb
   0.8926025200000001    0.5533046100000000    0.7396777700000000 Se
   0.3926025200000000    0.9466953900000000    0.2603222300000000 Se
   0.1073974800000000    0.0533046100000000    0.7603222300000000 Se
   0.9466953900000000    0.2603222300000000    0.3926025200000000 Se
   0.7603222300000000    0.1073974800000000    0.0533046100000000 Se
   0.2603222300000000    0.3926025200000000    0.9466953900000000 Se
   0.5533046100000000    0.7396777700000000    0.8926025200000001 Se
   0.7396777700000000    0.8926025200000001    0.5533046100000000 Se
   0.0533046100000000    0.7603222300000000    0.1073974800000000 Se
   0.4466953900000000    0.2396777700000000    0.6073974800000000 Se
   0.2396777700000000    0.6073974800000000    0.4466953900000000 Se
   0.6073974800000000    0.4466953900000000    0.2396777700000000 Se
