Ag6 As2 Se6
1.0
   6.9657463899999996    0.0479856800000000   -1.7609890099999990
  -2.2726382799999998    6.5847588100000003   -1.7609890200000000
   0.0339526900000000    0.0479856800000000    7.1848139399999997
Ag As Se
6 2 6
direct
   0.9789340300000000    0.4139190300000000    0.7596036100000000 Ag
   0.4139190300000000    0.7596036100000000    0.9789340300000000 Ag
   0.7596036100000000    0.9789340300000000    0.4139190300000000 Ag
   0.2596036100000000    0.9139190300000000    0.4789340300000000 Ag
   0.9139190300000000    0.4789340300000000    0.2596036100000000 Ag
   0.4789340300000000    0.2596036100000000    0.9139190300000000 Ag
   0.5072636200000000    0.5072636200000000    0.5072636200000000 As
   0.0072636200000000    0.0072636200000000    0.0072636200000000 As
   0.7781517000000000    0.7552004900000000    0.0907255300000000 Se
   0.7552004900000000    0.0907255300000000    0.7781517000000000 Se
   0.2781517000000000    0.5907255300000001    0.2552004900000000 Se
   0.5907255300000001    0.2552004900000000    0.2781517000000000 Se
   0.2552004900000000    0.2781517000000000    0.5907255300000001 Se
   0.0907255300000000    0.7781517000000000    0.7552004900000000 Se
