Rb4 Sb12 Se20
1.0
   8.8044852599999999   -0.0212344000000000    0.0000000000000000
  -1.1244693299999999    9.6300778299999994    0.0000000000000000
   0.0000000000000000    0.0000000000000000   13.1564180799999999
Rb Sb Se
4 12 20
direct
   0.3803040700000000    0.6990337100000000    0.2490056600000000 Rb
   0.1196959300000000    0.8009662900000000    0.7490056600000000 Rb
   0.6196959300000000    0.3009662900000000    0.7509943400000000 Rb
   0.8803040700000000    0.1990337100000000    0.2509943400000000 Rb
   0.9909819300000000    0.1785090100000000    0.9596332500000000 Sb
   0.5090180700000000    0.3214909900000000    0.4596332500000000 Sb
   0.0090180700000000    0.8214909900000000    0.0403667500000000 Sb
   0.4909819300000000    0.6785090100000000    0.5403667500000000 Sb
   0.3188125100000000    0.4600670800000000    0.9436869999999991 Sb
   0.1811874900000000    0.0399329200000000    0.4436870000000000 Sb
   0.6811874900000000    0.5399329200000000    0.0563129999999990 Sb
   0.8188125100000000    0.9600670800000001    0.5563129999999999 Sb
   0.8793987800000000    0.6247951700000001    0.4013644200000000 Sb
   0.6206012200000001    0.8752048300000000    0.9013644200000001 Sb
   0.1206012200000000    0.3752048300000000    0.5986355800000001 Sb
   0.3793987800000000    0.1247951700000000    0.0986355800000000 Sb
   0.1420627400000000    0.9610672900000000    0.1904897800000000 Se
   0.3579372600000000    0.5389327100000000    0.6904897800000001 Se
   0.8579372600000000    0.0389327100000000    0.8095102200000001 Se
   0.6420627400000000    0.4610672900000000    0.3095102200000000 Se
   0.2766669900000000    0.0980281300000000    0.9132320800000000 Se
   0.2233330100000000    0.4019718700000000    0.4132320800000000 Se
   0.7233330100000001    0.9019718700000000    0.0867679200000000 Se
   0.7766669900000001    0.5980281300000000    0.5867679200000000 Se
   0.2520055700000000    0.3548453900000000    0.1269373200000000 Se
   0.2479944300000000    0.1451546100000000    0.6269373200000000 Se
   0.7479944300000000    0.6451546100000000    0.8730626800000000 Se
   0.7520055700000000    0.8548453900000000    0.3730626800000000 Se
   0.0473297600000000    0.4092137400000000    0.8589534000000000 Se
   0.4526702400000000    0.0907862600000000    0.3589534000000000 Se
   0.9526702400000000    0.5907862600000000    0.1410466000000000 Se
   0.5473297600000000    0.9092137400000000    0.6410466000000000 Se
   0.8110005100000001    0.2169128000000000    0.5174576100000000 Se
   0.6889994900000000    0.2830872000000000    0.0174576100000000 Se
   0.1889994900000000    0.7830872000000000    0.4825423900000000 Se
   0.3110005100000000    0.7169128000000000    0.9825423900000000 Se
